K  Cl
 1.0000000000000000
     6.2919999999999998    0.0000000000000000    0.0000000000000000
     0.0000000000000000    6.2919999999999998    0.0000000000000000
     0.0000000000000000    0.0000000000000000    6.2919999999999998
 K   Cl 
   4   4
Direct
  0.0000000000000000  0.0000000000000000  0.0000000000000000
  0.0000000000000000  0.5000000000000000  0.5000000000000000
  0.5000000000000000  0.0000000000000000  0.5000000000000000
  0.5000000000000000  0.5000000000000000  0.0000000000000000
  0.5000000000000000  0.5000000000000000  0.5000000000000000
  0.5000000000000000  0.0000000000000000  0.0000000000000000
  0.0000000000000000  0.5000000000000000  0.0000000000000000
  0.0000000000000000  0.0000000000000000  0.5000000000000000
