64
Lattice="12.584 0.0 0.0 0.0 12.584 0.0 0.0 0.0 12.584" Properties=species:S:1:pos:R:3:forces:R:3 pbc="T T T"
K        0.00258065      -0.00941662       0.00780762       0.00202840       0.01023243      -0.01687597
K        6.30093913      -0.01852713      -0.01271869      -0.01816368       0.04799682       0.02501931
K        0.00081188       6.28982080       0.00013510      -0.01081992      -0.00504743      -0.01069406
K        6.28300304       6.30177720       0.00808103       0.02928313      -0.01563207      -0.01063847
K        0.00019379       0.01225563       6.29697820      -0.00623569      -0.02599591      -0.01585041
K        6.28294055       0.00467073       6.28271428       0.01778475       0.00186991       0.02211501
K        0.00831798       6.29248396       6.29045448      -0.00484033       0.00817852       0.01346763
K        6.28472418       6.30520864       6.29075781       0.01489265      -0.02331307       0.00581457
K       -0.00474980       3.14346189       3.15162620      -0.01121772      -0.00401807      -0.01708510
K        6.29518792       3.15111055       3.15061132      -0.01286801      -0.01298278      -0.01395355
K        0.02094996       9.43491907       3.14118068      -0.03817598       0.01196620       0.00733838
K        6.28339575       9.44514302       3.15759283       0.01236571      -0.01349596      -0.00758885
K       -0.00160600       3.13858166       9.43005830       0.00820869       0.00896316       0.01128305
K        6.29803941       3.15441576       9.44373465      -0.00794237      -0.00495614      -0.00940683
K       -0.00712162       9.44130484       9.43946997       0.01269368      -0.01231704      -0.01263833
K        6.29372037       9.44769751       9.44053906      -0.00202158      -0.00095559       0.00220490
K        3.15232262       0.00165901       3.14919430      -0.00533230       0.00308541      -0.01779057
K        9.44384636      -0.01358834       3.14310640      -0.01397700       0.01896856       0.01602131
K        3.14082975       6.28659444       3.14355169       0.01157647       0.00565328       0.00736275
K        9.45248289       6.28432491       3.15598589      -0.04234460       0.00323716      -0.02553649
K        3.12870478      -0.00236563       9.43993064       0.04873683      -0.00731016      -0.00557249
K        9.44339570       0.00809549       9.44623658      -0.00180114      -0.00793501      -0.01552646
K        3.14204623       6.28835970       9.44688287       0.02100654       0.00118023      -0.02016586
K        9.43562044       6.28022636       9.42697024       0.00970703       0.02597672       0.01636622
K        3.13633896       3.15195483       0.00172737       0.01863375      -0.02854577      -0.00065081
K        9.44443833       3.14271070       0.00188851      -0.02527498       0.01198119      -0.00044783
K        3.15178938       9.43588976       0.00487086      -0.01126403       0.00741465      -0.01955050
K        9.43091422       9.43535268      -0.00351427       0.00631035      -0.00172261       0.00092984
K        3.13357508       3.15185295       6.28760908       0.02754839       0.00252080       0.01477435
K        9.43765842       3.15179069       6.29676842      -0.01889288      -0.02631271      -0.01115213
K        3.15218733       9.43799837       6.28807013      -0.00600120       0.02003656       0.01367205
K        9.43673630       9.42210988       6.27783198       0.00824699       0.02509808       0.02626137
Cl       3.13230648       3.13701075       3.15030085       0.01023821       0.02509318      -0.00497422
Cl       9.42847869       3.14320160       3.15929539       0.02331605      -0.00607017      -0.01941075
Cl       3.14197084       9.44635838       3.13696693       0.00819271      -0.02421304       0.00925115
Cl       9.43547910       9.42948300       3.14291278       0.01688729      -0.00027048       0.00019228
Cl       3.15393656       3.12971002       9.44264734      -0.01721343       0.02936634      -0.01418128
Cl       9.43991084       3.14104172       9.42384253       0.00476150       0.00665529       0.02766321
Cl       3.14625477       9.43368830       9.44062987      -0.00249080       0.00440243       0.00467561
Cl       9.43775200       9.45500101       9.43590955       0.00040616      -0.02899266      -0.00697182
Cl       3.13529850       0.00277598       0.00250308       0.02035064      -0.00872772      -0.00106205
Cl       9.45112536       0.00933434       0.00387182      -0.01176734      -0.02300623      -0.00222913
Cl       3.16016651       6.28109559      -0.00609441      -0.04058974       0.02118386       0.02176414
Cl       9.42826772       6.28908512      -0.01346375       0.02252838       0.00213359       0.02246353
Cl       3.15188499      -0.00123900       6.27759505      -0.02200052       0.00999144       0.02487979
Cl       9.42737769       0.00411836       6.30068437       0.02256964      -0.01804873      -0.01607849
Cl       3.16550079       6.32212185       6.29644720      -0.03578929      -0.05367892      -0.01106227
Cl       9.42763810       6.27166276       6.29498022       0.01999322       0.03618466      -0.00845326
Cl      -0.00859593       3.14282965      -0.00581786       0.01210384       0.00815857       0.01128444
Cl       6.29012557       3.15764302       0.00187359       0.00126588      -0.02111192       0.00279296
Cl      -0.00205287       9.42862669      -0.01644372       0.00486976      -0.00057527       0.03113637
Cl       6.28667040       9.43844540       0.01798241       0.00654723      -0.00240699      -0.01981504
Cl       0.00083622       3.15681062       6.28731015      -0.00090459      -0.01081153       0.00487599
Cl       6.27968404       3.13733205       6.28505085       0.00356740       0.02907794       0.01739488
Cl       0.02081818       9.43076936       6.30068800      -0.03731666       0.01901966      -0.02387760
Cl       6.28250421       9.44829895       6.29615262       0.02344059      -0.00633939      -0.00450574
Cl      -0.00203290       0.00057560       3.13975523       0.00695686      -0.00839860       0.02144348
Cl       6.29599420      -0.00356661       3.13404705       0.00101075       0.00676266       0.00649247
Cl      -0.01324590       6.29470910       3.16209402       0.03610308      -0.00725538      -0.03223612
Cl       6.29313340       6.29179684       3.14916137      -0.00543984       0.01152879       0.00294966
Cl       0.01259350       0.00317705       9.43419384      -0.02710252      -0.00470865       0.00746919
Cl       6.30259637       0.00527079       9.45366067      -0.02324414      -0.00115242      -0.03123956
Cl       0.00136582       6.28073853       9.42462152      -0.00197597       0.01008469       0.02356990
Cl       6.30804276       6.31021988       9.43650792      -0.03112432      -0.01769436       0.00429226
64
Lattice="12.584 0.0 0.0 0.0 12.584 0.0 0.0 0.0 12.584" Properties=species:S:1:pos:R:3:forces:R:3 pbc="T T T"
K       -0.00460165       0.01419263      -0.01087159       0.01874289      -0.01778924       0.02870234
K        6.28228295       0.00601145      -0.00374719       0.02241294      -0.03388161      -0.00200687
K       -0.00082099       6.28994376       0.00357461       0.00369146       0.00618596       0.00154853
K        6.30530504       6.29248403       0.00663825      -0.01954957      -0.00652255       0.00776957
K       -0.02127150      -0.00090900       6.28376656       0.04210656       0.00363479       0.01371830
K        6.27904209      -0.00920334       6.28885763       0.03441191       0.01821477       0.00825014
K        0.00838925       6.27831426       6.29250518      -0.02088850       0.03812235      -0.00308415
K        6.28638853       6.28830145       6.30222644       0.01976967      -0.01292578      -0.02800021
K        0.00461138       3.15895217       3.14465381      -0.00620154      -0.02441862       0.00297828
K        6.28427080       3.14333960       3.14862383       0.00022075       0.01139967       0.00853633
K        0.00099596       9.42673430       3.14710376      -0.01609614       0.01949781       0.01036543
K        6.29351251       9.46275292       3.16496731      -0.00217315      -0.05215233      -0.03688898
K       -0.00930221       3.14270435       9.42356444       0.01607770       0.00270246       0.03835397
K        6.28532315       3.14873423       9.45025740       0.03063622      -0.02502806      -0.02288716
K       -0.00806061       9.43103672       9.41672597       0.02678799       0.01702344       0.04392239
K        6.28960357       9.42695404       9.43290447       0.01296400       0.01183816       0.01948347
K        3.13646162      -0.00136444       3.12862158       0.00240760       0.00715474       0.02581051
K        9.42255977       0.02087066       3.13332464       0.02035375      -0.03719703       0.01513584
K        3.13426237       6.30994732       3.17524954       0.03350010      -0.03205308      -0.05584321
K        9.42551456       6.28789569       3.14961442       0.00963946       0.01239361      -0.00811313
K        3.16251720      -0.01029039       9.43574609      -0.00653858       0.01295431      -0.00041090
K        9.44500360       0.00392585       9.43443730      -0.00495592       0.00342822      -0.00611102
K        3.14389199       6.27782923       9.43581713       0.02223703       0.02268336       0.01329642
K        9.43456635       6.29389988       9.43264559       0.01870796      -0.00273617       0.00450567
K        3.14994561       3.15570534       0.00175316      -0.00644788      -0.01691362       0.00980251
K        9.44074779       3.14610974       0.00019971      -0.00793089       0.01048279      -0.02312479
K        3.13801464       9.44074313      -0.00077400       0.00645513      -0.01368306       0.00878693
K        9.45816191       9.45331173       0.00405733      -0.04728158      -0.02188178       0.00573932
K        3.13759965       3.13445407       6.30411029       0.02395233       0.01248965      -0.02326617
K        9.43985772       3.15037962       6.27475300      -0.02678431      -0.01047337       0.01050561
K        3.15450461       9.44212239       6.28109456      -0.00937496       0.00903492       0.02271781
K        9.43251498       9.44021536       6.29272353       0.01334131      -0.01316437      -0.00707800
Cl       3.14230851       3.14454330       3.14367909      -0.00095981       0.01498542       0.01816091
Cl       9.43875585       3.16029310       3.12053228      -0.00449514      -0.02547535       0.03359883
Cl       3.14286172       9.43934331       3.14915880      -0.00015153       0.00543124      -0.00513207
Cl       9.43351108       9.42001097       3.14947882       0.00992707       0.05096680      -0.00305510
Cl       3.16250373       3.13023957       9.44683714      -0.04235905       0.01635537      -0.01205923
Cl       9.43394497       3.14496494       9.42766988       0.01056574       0.01078116       0.00851724
Cl       3.14188566       9.45057863       9.44402542       0.00432054      -0.03856493      -0.02097152
Cl       9.45455334       9.44935230       9.44258973      -0.02926884      -0.02295648      -0.00703589
Cl       3.16266957       0.00396812       0.00847875      -0.03773474       0.00111121      -0.02938481
Cl       9.43426451       0.00024364      -0.00677537       0.00072210       0.00965123       0.00694796
Cl       3.15512606       6.27979515       0.00802237      -0.00999766       0.02437478      -0.00481294
Cl       9.43532371       6.30329066       0.00770755       0.01335301      -0.00960822      -0.02723989
Cl       3.16343669       0.00688593       6.27647846      -0.05352033      -0.01480112       0.01890999
Cl       9.43656069      -0.01214189       6.28701607      -0.00803997       0.02408544      -0.01130295
Cl       3.16034251       6.29795352       6.28520956      -0.03206292      -0.01693941       0.03658362
Cl       9.42709305       6.29190601       6.28003326       0.02927142       0.00394057       0.03022105
Cl      -0.00748118       3.14869828       0.01175198       0.01504865       0.00210228      -0.03411016
Cl       6.29731784       3.12266529       0.00324253      -0.00312280       0.04218196       0.00436660
Cl      -0.00004944       9.44171709       0.01636096       0.00758995       0.00178898      -0.03686196
Cl       6.27059784       9.43166715       0.00610793       0.04075643       0.01597905      -0.00897340
Cl      -0.01658572       3.16033767       6.29588243       0.02754134      -0.03012707      -0.01086064
Cl       6.29969606       3.13986875       6.30033650      -0.02072869       0.00225285      -0.00947060
Cl       0.00991494       9.43990696       6.29454287      -0.01146384      -0.01466026      -0.01246704
Cl       6.29393366       9.42894473       6.29072358      -0.00590181       0.00749181       0.01908807
Cl      -0.00229500       0.00341212       3.15619711      -0.01767590      -0.00044172      -0.02615091
Cl       6.28064486      -0.00167191       3.16101342       0.01255071       0.01675136      -0.03099465
Cl      -0.00820566       6.28335568       3.14822193       0.00913723       0.01630613       0.00717107
Cl       6.29967408       6.29169244       3.15948847      -0.03379675       0.00668474      -0.01143124
Cl       0.00779816       0.00799638       9.44374003       0.00302751      -0.01315894      -0.02462714
Cl       6.31450676      -0.00247343       9.41816364      -0.02815565      -0.01084340       0.03105320
Cl       0.01527277       6.28700119       9.43927767      -0.02372146      -0.00160504      -0.00531473
Cl       6.30432573       6.27555559       9.42568239      -0.02484855       0.02753918       0.03452361
64
Lattice="12.584 0.0 0.0 0.0 12.584 0.0 0.0 0.0 12.584" Properties=species:S:1:pos:R:3:forces:R:3 pbc="T T T"
K       -0.01409562      -0.00617487       0.00280071       0.01942458       0.02503185      -0.00298841
K        6.29915904       0.00452923      -0.01572331      -0.02825863      -0.02402076       0.02897674
K       -0.02118387       6.29431003      -0.00631341       0.02813468       0.00809428       0.01029270
K        6.29851102       6.30078603      -0.00021324      -0.01538318      -0.02955440      -0.00840848
K        0.00951849       0.00405861       6.29570500      -0.01055558      -0.00742460      -0.01533400
K        6.28687043      -0.00002962       6.29237211       0.03220338       0.00063176      -0.01090537
K        0.01012244       6.28982908       6.29561602      -0.00900583      -0.00868287      -0.00714862
K        6.29125877       6.29259107       6.29869954       0.01006987      -0.00011120      -0.02396203
K       -0.01801344       3.13480177       3.12958249       0.03790944       0.03069020       0.02177219
K        6.27058100       3.14098385       3.15189869       0.04341683       0.01216565      -0.01507216
K       -0.00093168       9.44174439       3.15529652       0.00006659       0.00177739      -0.01390113
K        6.30719402       9.43907511       3.15794021      -0.02230606      -0.00697036      -0.02695588
K        0.00283843       3.13939251       9.43046034       0.00832312       0.01931556       0.01123196
K        6.27911179       3.13888515       9.43282418       0.02282937       0.02863454       0.00636360
K        0.00995301       9.45697419       9.42258253      -0.03294173      -0.02814378       0.02608305
K        6.29784543       9.42936105       9.44115132      -0.00264894       0.00878717      -0.00538972
K        3.14660629      -0.01654257       3.15368732      -0.00499767       0.03822090      -0.00968640
K        9.43386715      -0.00357251       3.13370682       0.01361286       0.01898185       0.02508836
K        3.14137433       6.29804540       3.14251190      -0.00065696      -0.00210851       0.00707655
K        9.44320378       6.29738571       3.15761096      -0.00954344      -0.00539390      -0.01261897
K        3.14448930      -0.01300209       9.44707657      -0.00279560       0.02174993       0.01072908
K        9.43660228       0.01291242       9.44023812       0.01530911      -0.03752954      -0.01573138
K        3.14660578       6.29725425       9.45591447      -0.01797221      -0.02147195      -0.02198844
K        9.46068697       6.29446030       9.43800625      -0.04280230      -0.00987022      -0.00527505
K        3.15867956       3.13930988       0.00173505      -0.03701050       0.00982365       0.00184341
K        9.43965853       3.15090557      -0.00992934      -0.00104199       0.00226795       0.01770631
K        3.13202149       9.41903666      -0.01276949       0.01312236       0.02833632       0.03302113
K        9.43533041       9.43683458       0.01777666       0.01193493       0.00076846      -0.03954251
K        3.15897709       3.13814558       6.29388143      -0.03793967       0.01850271      -0.00827492
K        9.43584638       3.14492285       6.29225760       0.00447048       0.00405158      -0.01403822
K        3.15410887       9.43637391       6.30104286      -0.00788946      -0.00966969      -0.01521294
K        9.42849778       9.43982988       6.31638109       0.03223373       0.00432972      -0.04697629
Cl       3.15014796       3.16209864       3.14531955      -0.02054662      -0.03257240       0.01054781
Cl       9.44572493       3.14719866       3.14270027      -0.04249035      -0.00209858      -0.00419518
Cl       3.14012234       9.44406951       3.13588898       0.01826896      -0.01922149       0.02309722
Cl       9.44657301       9.45061936       3.14806966      -0.00811575      -0.01703088       0.01694279
Cl       3.14505467       3.15230615       9.43331762       0.00436265      -0.02322315       0.00722883
Cl       9.44927263       3.12945243       9.43304827      -0.03225410       0.03270282       0.00649375
Cl       3.12800904       9.42481588       9.45004297       0.04592967       0.02573078      -0.02343964
Cl       9.44886901       9.43257169       9.42137931      -0.01570883       0.02498522       0.05363096
Cl       3.11827187      -0.00366846       0.02260850       0.04988360      -0.01235953      -0.03816323
Cl       9.44426600      -0.00382923       0.00305515      -0.02402230       0.01124616      -0.01880434
Cl       3.13230758       6.29079326      -0.00060088       0.01826544      -0.00617800       0.00768710
Cl       9.43905615       6.30167455       0.00185080      -0.01571451      -0.01657141      -0.00185848
Cl       3.15460042      -0.00511723       6.29938250      -0.00335254      -0.00330155       0.00347596
Cl       9.45620653      -0.00793500       6.28152739      -0.03478683       0.01526491       0.01740363
Cl       3.16127500       6.29185305       6.30444256      -0.01945267       0.00072886      -0.01326918
Cl       9.43549180       6.30831695       6.29171921       0.00670655      -0.02897673       0.00941295
Cl       0.00449945       3.16341367      -0.00521336      -0.00982742      -0.03175053      -0.01184700
Cl       6.28450594       3.14328085       0.00292769       0.02423735       0.00435172      -0.01472200
Cl      -0.01374043       9.44614120      -0.00698337       0.01025928      -0.01304532       0.00889643
Cl       6.30539529       9.41582389      -0.00946131      -0.03080550       0.04895412       0.01545025
Cl      -0.01494752       3.13950420       6.29288101       0.03421626       0.01190033      -0.01019571
Cl       6.29212489       3.14523272       6.28881250       0.00600799      -0.00736768       0.00822212
Cl       0.00395104       9.42968113       6.29747284       0.00736512       0.01661815      -0.01438189
Cl       6.30054382       9.44361687       6.29596968      -0.02301062      -0.00090266       0.00526218
Cl       0.00488134       0.02211722       3.14353341      -0.00898260      -0.04657543       0.00994520
Cl       6.29084633      -0.00576878       3.13408172      -0.00140642       0.00463897       0.01185409
Cl      -0.01052756       6.28487852       3.14369754       0.01838272       0.01769608       0.00718878
Cl       6.29726011       6.29427791       3.13674900      -0.00892939      -0.00065697       0.01992187
Cl       0.01091901       0.00916062       9.43480786      -0.01535481      -0.01010828       0.00653014
Cl       6.28738800       0.00725077       9.43828408       0.00311409      -0.02266728      -0.00565821
Cl      -0.01256411       6.29308669       9.43902471       0.03297408       0.00412006      -0.00693766
Cl       6.28492021       6.29566493       9.42185612       0.02547595      -0.01554000       0.03350629
64
Lattice="12.584 0.0 0.0 0.0 12.584 0.0 0.0 0.0 12.584" Properties=species:S:1:pos:R:3:forces:R:3 pbc="T T T"
K        0.01417247       0.01174182      -0.00014390      -0.03534309       0.00072540       0.00551323
K        6.29644515      -0.02483690      -0.00918220      -0.01982637       0.04446912       0.01703020
K       -0.00212718       6.28054099       0.00952524       0.00151145       0.02412103      -0.02090836
K        6.31278358       6.27949617      -0.00599336      -0.05042190       0.01672292       0.01532147
K        0.00316509       0.01537348       6.28215753      -0.00973469      -0.04279625       0.04033447
K        6.29530097       0.01747530       6.27786369       0.00241356      -0.02723880       0.02720151
K       -0.01200008       6.28702625       6.28917539       0.02552670       0.00110317       0.00302106
K        6.30093662       6.29367891       6.27663166      -0.01607013      -0.00864433       0.03303692
K        0.00596471       3.13948693       3.16112575      -0.01172833       0.02946004      -0.03460609
K        6.28653473       3.13889616       3.15379259       0.01058327       0.01297283      -0.00072711
K        0.00843987       9.44174331       3.13152530      -0.01528161      -0.01639431       0.02961410
K        6.29819095       9.42691924       3.15073404       0.00232492       0.03111945      -0.01342127
K       -0.01342673       3.14972554       9.43231529       0.03669845       0.00751731       0.00769540
K        6.27998426       3.15240052       9.44279772       0.01917574      -0.01288888       0.00513455
K       -0.00532916       9.45177410       9.43597475       0.00296326      -0.02680380       0.00308224
K        6.29313169       9.43995145       9.43418462      -0.01746945       0.00349772      -0.00581606
K        3.15152197      -0.00607221       3.14426489       0.00003711      -0.00012675       0.00146601
K        9.45243704      -0.01114354       3.12425347      -0.02019964       0.03674522       0.03852290
K        3.16291998       6.31675560       3.14432858      -0.02500295      -0.04966906       0.00338752
K        9.41944223       6.28815748       3.14551905       0.05826315       0.02759495       0.00410884
K        3.14491137      -0.01187156       9.44617689      -0.00373859       0.02761240      -0.01520713
K        9.44405568      -0.01568174       9.44737324      -0.01088890       0.03200499      -0.01919636
K        3.16733746       6.29298192       9.43700803      -0.05758594      -0.01534714       0.00385852
K        9.43739058       6.29741488       9.42307456       0.00836866      -0.02074449       0.01830592
K        3.14845452       3.14135768       0.02085953      -0.01938758       0.00723777      -0.03015935
K        9.43706888       3.16194119      -0.00865613      -0.00072474      -0.02936591       0.01375958
K        3.15268320       9.44045632      -0.00630920      -0.02034608      -0.02177962       0.01673741
K        9.44058457       9.44938750      -0.00085664      -0.00149510      -0.02355443       0.00092541
K        3.12989098       3.14508669       6.28535705       0.03003223       0.00539273       0.03353507
K        9.43538720       3.14444644       6.27732475       0.01034392      -0.00991236       0.03113175
K        3.13065403       9.44208298       6.28915409       0.01659977      -0.01808824       0.02014292
K        9.41316317       9.44511076       6.29710497       0.05138499      -0.01721476      -0.02222574
Cl       3.13967186       3.13209401       3.15673936       0.01721267       0.02358587      -0.00949248
Cl       9.44230412       3.16908834       3.15258316      -0.01018134      -0.05145233      -0.02222345
Cl       3.15068764       9.43559304       3.15654904       0.00018683       0.02117082      -0.01818762
Cl       9.44506146       9.44977957       3.14316805      -0.00190220      -0.02042448      -0.00658544
Cl       3.14245654       3.14047128       9.44828929       0.00083920       0.00022588      -0.00842138
Cl       9.45379435       3.14067391       9.43613354      -0.05013579       0.01062383      -0.00961704
Cl       3.14995138       9.43480470       9.44990181      -0.00131574       0.00668853      -0.03147559
Cl       9.41629284       9.42899527       9.43255711       0.02410144       0.00790006       0.02043067
Cl       3.12360705      -0.01037407      -0.00677028       0.04800776       0.01005861       0.02442202
Cl       9.43679956       0.01039197      -0.00006933       0.01300759      -0.01002294      -0.00357805
Cl       3.13650247       6.29069277       0.01287301       0.03976843       0.00235258      -0.01232207
Cl       9.42905102       6.28215657       0.00796677       0.01268482       0.03670680      -0.02834977
Cl       3.14459525       0.00573716       6.29424481       0.00847748      -0.01775570      -0.00342997
Cl       9.44582725      -0.01108847       6.29426043      -0.01379764       0.02452360      -0.01434680
Cl       3.14470371       6.27910341       6.27874650       0.00708252       0.02748590       0.01475425
Cl       9.44566810       6.28775279       6.28415847      -0.02257613       0.00540409       0.00949830
Cl      -0.00015118       3.15654250      -0.02042610      -0.00221195      -0.02473283       0.04938145
Cl       6.27784422       3.13603345       0.01699307       0.02530123       0.00196931      -0.01456270
Cl       0.00363648       9.44493549      -0.00902033      -0.00972862      -0.00049807       0.01103521
Cl       6.28161525       9.44174045       0.00296402       0.02836320      -0.02945785      -0.00768903
Cl       0.00629800       3.14338561       6.29716271      -0.02469767       0.00546095      -0.01071789
Cl       6.29439180       3.15303999       6.30245136      -0.01016388      -0.00483903      -0.01688765
Cl      -0.01538811       9.41478963       6.30439873       0.01105731       0.04998473      -0.02913242
Cl       6.30468786       9.42705609       6.27578292      -0.05009889       0.03143416       0.03032009
Cl       0.00180096       0.00857070       3.16635722       0.01141571      -0.01656389      -0.04243222
Cl       6.29797359      -0.00445485       3.13944997      -0.00017934      -0.00000086       0.00007043
Cl       0.00092512       6.28826967       3.13823060       0.00141180       0.00741388       0.01515714
Cl       6.31329817       6.30911400       3.15974176      -0.03949238      -0.04079468      -0.03943723
Cl      -0.00839789       0.00781251       9.44677754       0.01549519      -0.01389141      -0.02026373
Cl       6.29723607       0.01175897       9.44673499      -0.00578572      -0.02302817      -0.02756460
Cl       0.00821075       6.29763138       9.44378919      -0.01241643       0.00651634      -0.00805865
Cl       6.27497450       6.29209853       9.43481936       0.04928845       0.00622841      -0.00089329
64
Lattice="12.584 0.0 0.0 0.0 12.584 0.0 0.0 0.0 12.584" Properties=species:S:1:pos:R:3:forces:R:3 pbc="T T T"
K       -0.01378576       0.01766362       0.01818865       0.00527826      -0.05337122      -0.03747457
K        6.30460485       0.00339759       0.01440494      -0.02621240       0.00299372      -0.02980603
K       -0.00086682       6.29487342      -0.01003602      -0.00527742      -0.00340275       0.01415492
K        6.29498256       6.29344931      -0.01212783      -0.00507124       0.00994240       0.00261764
K       -0.00149932       0.00004816       6.31087431       0.00897903       0.00968796      -0.02938414
K        6.29995478       0.00095991       6.29538657      -0.00111391      -0.00302584       0.00626073
K       -0.00054523       6.29081631       6.28207442      -0.00812473       0.02048445       0.01465542
K        6.28950213       6.28538447       6.28039554      -0.00399579       0.01880616       0.01314698
K        0.00412487       3.15075810       3.12903162      -0.02454654      -0.00138009       0.04397130
K        6.28978580       3.15680247       3.15749093       0.00778753      -0.00502408      -0.01633630
K        0.00927102       9.43923458       3.13844824      -0.01584068       0.00299777       0.01311551
K        6.28017566       9.44229150       3.15069149       0.02014841      -0.01513991      -0.00743021
K        0.01188596       3.15784525       9.43757641      -0.02603975      -0.03194049       0.00228794
K        6.27857059       3.14365439       9.44107101       0.03578598       0.01052274       0.00077043
K       -0.00300818       9.43306651       9.44142754       0.00326108       0.00034407       0.00190516
K        6.28597307       9.43256479       9.44201322       0.00926620       0.00736227      -0.01256062
K        3.14099272       0.00328650       3.14963073      -0.00338270      -0.01125547      -0.00488530
K        9.42561836      -0.00396696       3.16127646       0.02558854      -0.00830140      -0.00684110
K        3.13339185       6.27167891       3.12828024       0.01949874       0.04670620       0.02164392
K        9.43730375       6.29315462       3.14572259      -0.00120555      -0.00870814      -0.01043478
K        3.15715455      -0.02588289       9.44285803      -0.02253518       0.02846865      -0.01259214
K        9.45262703      -0.01043236       9.43510063      -0.01802640       0.02839725       0.01688033
K        3.13748373       6.28390199       9.43563607       0.02087929       0.01577661      -0.00110516
K        9.45128750       6.31121932       9.43553930      -0.02278806      -0.02652107      -0.00242296
K        3.16406325       3.14720122       0.01843560      -0.02060005      -0.00373553      -0.04657442
K        9.43607966       3.14815603       0.00455344       0.00362529       0.00465250      -0.01139700
K        3.17680118       9.44735831      -0.00617395      -0.06322313      -0.02530556       0.00615501
K        9.44670263       9.43522713      -0.00399881      -0.00790935       0.00174065      -0.00460332
K        3.15409866       3.14715631       6.29568445      -0.02000803      -0.00837213      -0.00620141
K        9.43715250       3.15021128       6.29714835       0.00833827      -0.01045536       0.00947740
K        3.12564298       9.44551118       6.28307850       0.03344093      -0.02339583       0.01689492
K        9.42258966       9.43826134       6.29373850       0.03990736      -0.00890591      -0.01021954
Cl       3.13807759       3.15515577       3.13347694       0.01813805      -0.03249086       0.02868576
Cl       9.43294321       3.14099671       3.14643282       0.00709843       0.00691972       0.00608417
Cl       3.14780129       9.42876652       3.15414152       0.00066411       0.01545394      -0.01777199
Cl       9.43764267       9.41992599       3.12731278      -0.00566852       0.03171146       0.03069974
Cl       3.14488946       3.14463578       9.43786449      -0.00019008      -0.01496895       0.01685436
Cl       9.43673282       3.14910105       9.44837519       0.01178983      -0.00325398      -0.00875377
Cl       3.13390160       9.42712574       9.42796546       0.02899938      -0.00340898       0.00480018
Cl       9.43990181       9.45129493       9.43458530      -0.01405219      -0.01869929       0.00742557
Cl       3.11999565      -0.01619448      -0.00743167       0.05101801       0.04113313       0.02713964
Cl       9.43143536      -0.00323843       0.00128450       0.00779670       0.00548189       0.01295290
Cl       3.14189518       6.30333885      -0.00586148       0.00671716      -0.02548805      -0.00586675
Cl       9.42838947       6.29763421      -0.01445773       0.02638624      -0.01011151       0.02470824
Cl       3.14890957       0.00187098       6.29142427       0.00416012       0.00553654      -0.00295069
Cl       9.45289541      -0.00537662       6.31350168      -0.02638269       0.01287454      -0.03657635
Cl       3.14275833       6.28007529       6.29359789       0.00917889       0.01732644      -0.01569258
Cl       9.42625020       6.28532789       6.29686903       0.01324070       0.01366611      -0.01932600
Cl       0.00456847       3.14062378       0.01077275       0.00619822       0.02174655      -0.02725536
Cl       6.30258773       3.16120847       0.00619283      -0.02047420      -0.03385701       0.00524889
Cl       0.01264694       9.42003747      -0.00228037      -0.00432447       0.04043682       0.00849664
Cl       6.28234260       9.44003771      -0.00481580       0.03597905       0.01460832       0.01203232
Cl      -0.00264893       3.16566720       6.29120150       0.01216869      -0.03032004      -0.00567138
Cl       6.29515057       3.14452276       6.29365583      -0.00765055       0.00102030      -0.00320641
Cl      -0.00092719       9.44332869       6.30455177      -0.01717451      -0.01296027      -0.03314211
Cl       6.30748659       9.44194165       6.29879416      -0.04669392      -0.00997351      -0.01289019
Cl      -0.01249600      -0.00003332       3.15630159       0.01438043       0.00711747       0.00086950
Cl       6.29967233       0.00296155       3.15576263      -0.02894819       0.00551081      -0.00850245
Cl       0.00392032       6.30484851       3.14979229      -0.01647084      -0.02402199      -0.02065620
Cl       6.28745566       6.29620386       3.11759275      -0.00324240      -0.00360999       0.04025181
Cl       0.00284151      -0.03563868       9.42166406       0.01276587       0.07299325       0.05355074
Cl       6.29553033       0.00562075       9.42727441      -0.00006932      -0.01412776       0.03529617
Cl      -0.00810837       6.30655086       9.43405839       0.02002760      -0.03318929      -0.00277732
Cl       6.31344185       6.29282625       9.44297906      -0.04124959      -0.00369842      -0.02772570
64
Lattice="12.584 0.0 0.0 0.0 12.584 0.0 0.0 0.0 12.584" Properties=species:S:1:pos:R:3:forces:R:3 pbc="T T T"
K        0.01461275       0.00093934      -0.00991797      -0.02180594      -0.01420673      -0.00313949
K        6.28934674      -0.00072704      -0.01354195       0.00363892       0.00868185       0.03719030
K       -0.00411431       6.28420715       0.00934905      -0.00304195       0.03212648      -0.00814396
K        6.29079013       6.28880111      -0.00095635      -0.01316324       0.01406126       0.00649628
K        0.00067523       0.00579721       6.28210835       0.00984693      -0.01034860       0.00145959
K        6.28002813       0.01067586       6.28798210       0.02992753      -0.00879542       0.01064722
K       -0.01572441       6.29606720       6.29673917       0.03337869      -0.01490181      -0.00296890
K        6.27513686       6.29392389       6.29946130       0.03176165       0.00785293      -0.00417436
K        0.00218787       3.15194889       3.13206278      -0.00745261      -0.01280380       0.02161470
K        6.29375441       3.14260287       3.14127757      -0.00086888       0.00276970       0.01669304
K        0.00714957       9.45242182       3.16404917      -0.01016664      -0.03453261      -0.04771939
K        6.30359209       9.43653173       3.14963267      -0.02782639      -0.00164436       0.00008054
K        0.00611224       3.14684085       9.43941311      -0.01303562      -0.01722486      -0.01542168
K        6.29868154       3.14503625       9.43081260      -0.01068846       0.01066447       0.01293837
K       -0.00570072       9.44396818       9.43813540       0.03215391      -0.02619616       0.00438525
K        6.29384611       9.44432986       9.43435705      -0.00442336      -0.01620116       0.00384490
K        3.15200649       0.00341750       3.13375734      -0.00542385      -0.00831289       0.02164791
K        9.45086706      -0.00537838       3.12955452      -0.03151772      -0.00062114       0.03374847
K        3.13399357       6.28141862       3.14662720       0.02182584       0.03543410       0.00521809
K        9.43370551       6.28826075       3.15230249      -0.00141053       0.00267070      -0.00528754
K        3.14784276       0.00278955       9.44220375       0.00263279      -0.00758936      -0.01575144
K        9.44260536      -0.02145046       9.43446109      -0.00049641       0.03692822      -0.00098206
K        3.12264191       6.29198967       9.43805914       0.04767440       0.00260026       0.01564034
K        9.44689933       6.30350542       9.44013322      -0.01309721      -0.03138050       0.00527425
K        3.13944040       3.15048068      -0.00517371       0.01037011      -0.00838822       0.00383514
K        9.43643008       3.15549043      -0.00547224      -0.01827933      -0.01569125       0.00136666
K        3.15250080       9.44440309      -0.00944245      -0.01130632      -0.02881317       0.02540611
K        9.44618295       9.44461474       0.00112473      -0.00197359      -0.02171991       0.01738177
K        3.13682078       3.13703701       6.28672884       0.01946938       0.02130306       0.01063038
K        9.44186995       3.13607282       6.29648059      -0.01227210       0.02430295      -0.00607075
K        3.13202646       9.43558839       6.29320195       0.02265828       0.01762899      -0.00131939
K        9.46089531       9.42385592       6.30682561      -0.05343597       0.03977521      -0.02298457
Cl       3.14594243       3.14974079       3.14728895      -0.01173009      -0.01142147      -0.01179016
Cl       9.44089128       3.14409222       3.16064597       0.00717619      -0.00432308      -0.03079170
Cl       3.13987930       9.44895142       3.13966180       0.01617857      -0.02238720       0.01050134
Cl       9.43584149       9.42690945       3.15065571       0.01777423       0.01577928       0.00113422
Cl       3.15889527       3.14485551       9.43613661      -0.02443978      -0.00021607       0.00057212
Cl       9.42529784       3.14333615       9.42217753       0.03574690      -0.00540850       0.03071801
Cl       3.13531523       9.43989693       9.45129560       0.02019605      -0.00146321      -0.03072609
Cl       9.46453612       9.43176322       9.45245847      -0.04823073       0.00873201      -0.01665270
Cl       3.14688154      -0.00188340       0.00443141       0.00214670       0.02100850      -0.01575038
Cl       9.43706318       0.00073303      -0.00397786       0.01160825       0.00911013      -0.00832722
Cl       3.13046291       6.27619282       0.00663792       0.01751386       0.02382133      -0.00889084
Cl       9.43367701       6.28566818       0.00019052       0.00691774       0.01556263       0.00589535
Cl       3.15239333       0.00143271       6.28554492      -0.02439036      -0.00604170       0.00556025
Cl       9.44870694       0.01542093       6.29705104      -0.01632344      -0.04355006      -0.01458815
Cl       3.15418065       6.30404867       6.30340646      -0.04121242      -0.02340959      -0.01652061
Cl       9.44258500       6.29761254       6.29730207      -0.01888903      -0.01766937       0.00132136
Cl      -0.01252937       3.15263630      -0.01345267       0.01494324      -0.02434365       0.01584395
Cl       6.28249802       3.15866472       0.00850767       0.01245384      -0.03069570      -0.01866569
Cl       0.01331799       9.43491233      -0.01141702      -0.02026075       0.00838840       0.02737824
Cl       6.28803964       9.43864938       0.00089536       0.02052762       0.00305193      -0.00808778
Cl       0.00978082       3.14201637       6.29562581      -0.01505923       0.01587093      -0.01601498
Cl       6.28055774       3.15013224       6.29213655       0.01250646       0.00267939      -0.00788903
Cl      -0.00905412       9.43527078       6.29026371       0.01915684       0.00597888       0.01443314
Cl       6.28774246       9.45534248       6.29112101       0.01526227      -0.02339687       0.01431426
Cl      -0.00399495      -0.02134544       3.13716340       0.01619719       0.05681658      -0.00389834
Cl       6.28781328      -0.00722946       3.15992254       0.02139115       0.01438981      -0.04097962
Cl      -0.00320537       6.30451351       3.14672252      -0.00433783      -0.02048327       0.01351781
Cl       6.29081629       6.29074111       3.14614343      -0.00792386      -0.00228875       0.00704727
Cl       0.01563196      -0.02356704       9.41809001      -0.02200193       0.04983816       0.02494259
Cl       6.28501230      -0.00022565       9.44500651       0.01953835      -0.00309793      -0.01541646
Cl       0.00317488       6.28778661       9.44829591      -0.01642879       0.00233291      -0.01564793
Cl       6.30074596       6.29346965       9.44773204      -0.01965952       0.00940731      -0.01407804
64
Lattice="12.584 0.0 0.0 0.0 12.584 0.0 0.0 0.0 12.584" Properties=species:S:1:pos:R:3:forces:R:3 pbc="T T T"
K        0.00422907      -0.00440036       0.00671392      -0.00512838       0.01094626      -0.00880324
K        6.29460875       0.00122786       0.01446529      -0.01379360      -0.00194667      -0.01813108
K       -0.02300610       6.27903762      -0.01213495       0.04099267       0.02432380       0.02049218
K        6.28987001       6.29066838      -0.01533751      -0.01705486      -0.00652089       0.01427623
K       -0.00834896      -0.00739395       6.31630999       0.01462739       0.03102605      -0.04788219
K        6.31152004      -0.00290303       6.28809992      -0.02833871       0.01411797       0.01189601
K       -0.00998942       6.27413316       6.29056695       0.00789476       0.03641078      -0.00497291
K        6.28352410       6.29236596       6.27573369       0.01413337      -0.02708652       0.02765559
K       -0.00611713       3.14870074       3.14939785       0.01876695      -0.02913833      -0.01901392
K        6.29767734       3.13400958       3.15428261      -0.00263050       0.01344329      -0.02151047
K       -0.00649950       9.44554305       3.14562936       0.02323611      -0.01414526      -0.00487509
K        6.27973874       9.43605249       3.14938939       0.00455341      -0.00809113      -0.00741981
K        0.00763227       3.14580459       9.45305354      -0.01119940      -0.01040169      -0.03478665
K        6.30357773       3.14464792       9.44523697      -0.00998579       0.01356541      -0.02362541
K        0.02084055       9.45881931       9.42545575      -0.03732816      -0.02410371       0.02203307
K        6.28423729       9.45406365       9.42715294       0.02027947      -0.02680138       0.04187602
K        3.13427721      -0.00364748       3.14993802       0.00084628      -0.00497048      -0.01793921
K        9.43847865      -0.00529117       3.13899363      -0.00205994       0.02501260       0.02144365
K        3.14037925       6.28441937       3.16855208       0.01745694       0.00042445      -0.04792401
K        9.44247773       6.30208206       3.14084498      -0.01105442      -0.01796849       0.01413884
K        3.14564305      -0.00592107       9.41121867       0.02459065       0.03390682       0.04508176
K        9.42572253      -0.01689172       9.41523791       0.03712991       0.05253631       0.05855908
K        3.13554903       6.30646402       9.43729139       0.05229917      -0.03059753       0.01334082
K        9.45240826       6.29732429       9.44556134      -0.02200234      -0.00416644      -0.01104500
K        3.13849365       3.15245398       0.00702289       0.00923316      -0.01273496      -0.00445769
K        9.43373615       3.15280987       0.00539763      -0.01343080      -0.03948301      -0.01343744
K        3.14200709       9.42798678      -0.01210553      -0.00197809       0.01858986       0.04041322
K        9.44036767       9.44248456      -0.00818951      -0.01614206      -0.00633031       0.01528602
K        3.14776847       3.15291984       6.29791766      -0.00288058      -0.02065732       0.00101735
K        9.45502142       3.15998427       6.28172284      -0.04761609      -0.01153646       0.02459070
K        3.16433848       9.43390470       6.30218448      -0.02991966       0.01204862      -0.02422601
K        9.44018248       9.43509297       6.27365878       0.00469953       0.01578452       0.03782862
Cl       3.14578697       3.13162063       3.15540874      -0.00348490       0.02172318      -0.00200930
Cl       9.45467054       3.13924536       3.14875546      -0.03009897       0.01879797      -0.01070705
Cl       3.14024870       9.43292962       3.15348070       0.00116192      -0.00343099      -0.00017074
Cl       9.43911724       9.45661095       3.14091343      -0.01364942      -0.03640121       0.00066932
Cl       3.15749598       3.14818860       9.44569353      -0.01963014       0.00303001      -0.01576066
Cl       9.43503104       3.14671888       9.43658076       0.03047105       0.00295224       0.00343640
Cl       3.13914205       9.44583528       9.44423824       0.02196478      -0.00532168      -0.02519430
Cl       9.44543817       9.45458412       9.45222920       0.00167040      -0.03844242      -0.04047645
Cl       3.14375317       0.00494499      -0.00650026       0.00676894      -0.01157812      -0.00309182
Cl       9.43973617      -0.00478303       0.01593645      -0.00525619       0.00682639      -0.03636299
Cl       3.15113960       6.29103417       0.01167194      -0.03567399      -0.00159133      -0.01013578
Cl       9.41779646       6.27307344       0.00769414       0.03499923       0.04588333      -0.01339617
Cl       3.14810730       0.00371893       6.27847179       0.00584199      -0.01110923       0.02261320
Cl       9.43927028       0.02124956       6.29997775       0.00208063      -0.04461324      -0.03130991
Cl       3.14919968       6.28882393       6.28779002      -0.02157508       0.00909956       0.02139335
Cl       9.41821064       6.29579087       6.30019058       0.03703125       0.01648995      -0.01786519
Cl      -0.01425358       3.14060030      -0.01183890       0.01405290       0.01118629       0.02705609
Cl       6.28384911       3.14774928      -0.02110827       0.01045959      -0.00833582       0.05236332
Cl       0.00764532       9.44675302      -0.00277528      -0.02380574      -0.03677140      -0.00658870
Cl       6.26869553       9.42925028       0.01206477       0.04199742       0.01832916      -0.02410951
Cl      -0.02627732       3.14373923       6.27993574       0.06191916       0.00084868       0.03591769
Cl       6.30154832       3.14046333       6.29577529      -0.01047101       0.00675473      -0.00598336
Cl       0.00715722       9.45757672       6.28970633      -0.00683314      -0.05192438       0.00141238
Cl       6.29726306       9.42436391       6.30363989       0.00444270       0.02666891      -0.02542864
Cl      -0.00610247      -0.00439308       3.14551327       0.00086315       0.00788070       0.01907195
Cl       6.27787377       0.00350217       3.15541041       0.02279617      -0.02132584      -0.00494214
Cl       0.00443196       6.27732549       3.14449766      -0.01907890       0.03179543      -0.00150818
Cl       6.30092291       6.27443458       3.13498809      -0.00999781       0.02349508       0.01019468
Cl       0.01026805       0.00391542       9.44185547      -0.01668423       0.00236751       0.00157188
Cl       6.31209757       0.00589999       9.44431463      -0.04209297      -0.01874400      -0.01266908
Cl       0.02861007       6.29107642       9.42975692      -0.05120589       0.01602476       0.00407228
Cl       6.29778058       6.29760438       9.43246860      -0.00717927       0.01397962      -0.01194158
64
Lattice="12.584 0.0 0.0 0.0 12.584 0.0 0.0 0.0 12.584" Properties=species:S:1:pos:R:3:forces:R:3 pbc="T T T"
K       -0.01009876       0.02266467       0.00338778       0.01953821      -0.04877865      -0.01654111
K        6.28490236       0.00872553      -0.00097211       0.00853848      -0.02906081       0.00732727
K       -0.00230360       6.29718895      -0.01279948       0.00055480      -0.01290420       0.01525874
K        6.29575148       6.31069577       0.00478112      -0.02772705      -0.01833745      -0.02652796
K       -0.00353691      -0.00550483       6.28801594       0.02516658       0.00212991       0.00977825
K        6.28968559      -0.00421184       6.30128246       0.02268114      -0.00399109      -0.00416053
K       -0.01710688       6.30018622       6.28832248       0.01764046      -0.02315692       0.00818000
K        6.29599469       6.28029635       6.30540565      -0.01028904       0.02203049      -0.01800835
K        0.01268156       3.15516213       3.13097179      -0.01536132      -0.02730512       0.02626561
K        6.30051642       3.14961478       3.13006663      -0.00904105      -0.01757029       0.02299855
K       -0.00001776       9.44121157       3.15168009       0.00943354      -0.03436880      -0.00513036
K        6.29399783       9.44047854       3.16085545       0.00002185      -0.00357213      -0.02593820
K        0.01248555       3.11689567       9.43494496      -0.02185855       0.06408476       0.00926685
K        6.29057870       3.12804524       9.43906117       0.00367219       0.03399784      -0.00124969
K        0.01271279       9.42670055       9.44148335      -0.01874321       0.02806224       0.01635081
K        6.28306698       9.43084710       9.45289328       0.02057884       0.01315672      -0.02279361
K        3.14079963       0.00418835       3.12740716       0.02759440      -0.00728865       0.02214980
K        9.45684839       0.00559275       3.14429434      -0.03281160      -0.02209521       0.00238594
K        3.15198068       6.27746803       3.15794465      -0.02587768       0.04423894      -0.02759319
K        9.43498536       6.28952553       3.14120278      -0.01052214       0.00688894      -0.00619742
K        3.14041870       0.00651293       9.44067841       0.01395287      -0.01605653      -0.01038812
K        9.44474269      -0.00052172       9.44325134      -0.01841471      -0.00067823      -0.01858427
K        3.14203673       6.31386354       9.42244004       0.00859838      -0.03734078       0.04372501
K        9.45083459       6.30524530       9.42959775      -0.02937135      -0.01910662       0.01266224
K        3.16851795       3.15552113       0.00983073      -0.03582766       0.00475034      -0.03198915
K        9.43850543       3.14339396      -0.00197475       0.00113532       0.00658551      -0.01225413
K        3.15013052       9.45157809       0.00193248      -0.01162317      -0.02260919       0.00349061
K        9.42911078       9.44581050       0.00933085       0.00281208      -0.02397976      -0.01607062
K        3.15277181       3.15302121       6.28941006      -0.01319518      -0.02275967       0.01262766
K        9.42893532       3.13688429       6.27576471       0.02037701       0.01857903       0.03971019
K        3.14859470       9.43673174       6.28771946      -0.00123487       0.00312688       0.00985202
K        9.40866902       9.42509305       6.30332775       0.03182209       0.03328190      -0.00496564
Cl       3.13957895       3.14917214       3.13221249       0.02584563      -0.01382946       0.03160979
Cl       9.45261227       3.14412595       3.14901975      -0.01498008      -0.00106504      -0.02234347
Cl       3.16948301       9.45273063       3.14305368      -0.04804346      -0.02909833       0.01337671
Cl       9.43229301       9.43431077       3.15121832       0.01416529       0.00672199       0.00243017
Cl       3.14517297       3.14161378       9.45279115       0.01350382       0.01704940      -0.02956596
Cl       9.43708311       3.16856212       9.43902677       0.00341920      -0.03373988      -0.01021754
Cl       3.16407840       9.44113942       9.44774895      -0.04404459       0.01332878      -0.02427393
Cl       9.43097910       9.42902863       9.44271640       0.02105514       0.02119637       0.00387056
Cl       3.15611074      -0.00003121      -0.01274459      -0.03018182       0.02264011       0.01787203
Cl       9.42462263      -0.01470514      -0.01755688       0.01843330       0.03720757       0.04013560
Cl       3.14732007       6.30281666      -0.00001482      -0.00001201      -0.00678911       0.00310803
Cl       9.41562106       6.28965862      -0.00150865       0.03334594       0.00370835       0.00423224
Cl       3.16718520      -0.01500515       6.28821257      -0.04740227       0.03386899      -0.00354241
Cl       9.45528374       0.00406601       6.29775247      -0.02775695      -0.01448554      -0.01235353
Cl       3.14737106       6.29486566       6.29989544      -0.01716849      -0.00528791      -0.02201193
Cl       9.43013035       6.30034681       6.27838931       0.00589696      -0.02836374       0.00670999
Cl       0.00350889       3.14735363      -0.00604359       0.00019431       0.00340296       0.00762846
Cl       6.29199836       3.13934082      -0.01059767       0.01862396       0.02174043       0.01937819
Cl      -0.00331093       9.42652634       0.00334732      -0.00180998       0.03840506       0.00431880
Cl       6.28072436       9.44468599      -0.01169545       0.02135335       0.00463662       0.04652322
Cl      -0.00543774       3.13932019       6.30537081       0.01610224       0.00913622      -0.04050783
Cl       6.29552811       3.14344889       6.29710654      -0.01026678      -0.00464359      -0.02118423
Cl      -0.02084671       9.43713489       6.31209448       0.02490871      -0.00152278      -0.03072618
Cl       6.29354868       9.43824536       6.29760062      -0.01804966      -0.01396000       0.00324915
Cl       0.00918126      -0.02040844       3.12929608      -0.00911606       0.04133033       0.02466440
Cl       6.29432813      -0.00758254       3.15923959       0.01173549       0.03073529      -0.02022883
Cl      -0.00292653       6.27222092       3.13343920       0.00506949       0.04043901       0.02131798
Cl       6.26472845       6.28922497       3.14423550       0.05051140      -0.00416130       0.01514856
Cl      -0.00401941       0.01035501       9.45010454       0.00966429      -0.04332936      -0.01930428
Cl       6.29052133      -0.02178071       9.44429216       0.00581055       0.03528206      -0.00805501
Cl       0.00577881       6.29466014       9.44793414      -0.00488363      -0.01775628      -0.03484226
Cl       6.28057693       6.31165378       9.42852506       0.02185707      -0.05275059       0.01994631
64
Lattice="12.584 0.0 0.0 0.0 12.584 0.0 0.0 0.0 12.584" Properties=species:S:1:pos:R:3:forces:R:3 pbc="T T T"
K        0.00978963      -0.01498652      -0.00888639      -0.01796554       0.03289435       0.00911297
K        6.30946108      -0.00072204       0.00881548      -0.01888688      -0.00210486      -0.02403927
K        0.00466695       6.29283737       0.01405476      -0.01482404      -0.00420650      -0.01821762
K        6.29193081       6.27607957      -0.00761614       0.00341548       0.02791196       0.01383018
K        0.00780932       0.00584205       6.27674567      -0.02488676       0.00044421       0.03128237
K        6.28705397      -0.00393026       6.28876156       0.01276551       0.01568195      -0.00180388
K       -0.01146174       6.28760324       6.28513015       0.02456437       0.00161689       0.02516006
K        6.30201273       6.30197817       6.29095815      -0.01358090      -0.02302060      -0.00259517
K       -0.00162300       3.14928620       3.13825051       0.00129518      -0.01162137       0.00327671
K        6.28282908       3.13848474       3.14006813       0.03703285       0.01517742       0.04306379
K       -0.00933734       9.44150755       3.15371341       0.01551127      -0.00835835      -0.02282049
K        6.27842642       9.44013824       3.14421690       0.02984433      -0.01048832      -0.01244065
K        0.00571248       3.14775757       9.42388026      -0.02106728       0.00342916       0.01833512
K        6.28167351       3.14818119       9.44870407       0.03320799      -0.00405121      -0.01719263
K       -0.01984448       9.44334422       9.45031248       0.03918288       0.00196872      -0.02445920
K        6.29276714       9.44538898       9.43138557      -0.01384622      -0.00786047      -0.01551914
K        3.14710374      -0.01432218       3.12297282       0.00405905       0.03470745       0.04961469
K        9.44972506      -0.00796300       3.14186098      -0.01307262       0.01034282       0.01640381
K        3.13443298       6.27978726       3.14467788       0.02408999       0.01542064       0.02362358
K        9.43300163       6.29766666       3.15094164      -0.00006617      -0.04449225      -0.01203283
K        3.15150589       0.00427296       9.45419394      -0.01854218      -0.00957922      -0.02582895
K        9.42962146       0.00133761       9.44974315       0.00773875       0.01134086      -0.04017318
K        3.16094280       6.27966932       9.43529270      -0.03104602       0.04811737       0.01413210
K        9.45387861       6.29896775       9.44036889      -0.02453488      -0.01967764      -0.00175822
K        3.14612055       3.14404894       0.00329845      -0.00931966       0.00507786       0.00133434
K        9.43777366       3.14746117       0.00120224       0.01556387       0.01724902       0.00173866
K        3.14151668       9.44520825       0.02955870       0.01424303      -0.01955169      -0.07167884
K        9.42252753       9.44312708      -0.00718564       0.02872299      -0.00304745       0.00593664
K        3.15407142       3.14835253       6.30003480      -0.00698544      -0.01724506      -0.01875349
K        9.45205246       3.14981117       6.30373678      -0.03739306      -0.01983213      -0.01941859
K        3.12485442       9.45579148       6.29616688       0.02580441      -0.04025411       0.00180852
K        9.45107583       9.42768820       6.28410856      -0.03770141       0.02600712       0.00959592
Cl       3.14975678       3.14771658       3.14924694      -0.00841586      -0.01887765      -0.01070820
Cl       9.45114255       3.13023475       3.15615445      -0.02958533       0.02387937      -0.01523526
Cl       3.14838022       9.43784914       3.13170510      -0.02456669      -0.01116257       0.04688368
Cl       9.44532788       9.41574588       3.15290020      -0.01934091       0.04177547      -0.02901404
Cl       3.13337634       3.14842153       9.43722457       0.01764394      -0.00624000       0.02250609
Cl       9.45199278       3.14610040       9.43147487      -0.02191460       0.01032068       0.02376046
Cl       3.14323137       9.45261578       9.44377923      -0.00330518      -0.02601056       0.00370849
Cl       9.43644110       9.43752249       9.42274449      -0.01320774       0.00731468       0.02213466
Cl       3.15218214      -0.01571120       0.00793422       0.01101964       0.03741002      -0.01218427
Cl       9.44158361       0.02575647      -0.01058510       0.00242227      -0.05558702       0.02485681
Cl       3.14727078       6.31186983       0.01233015       0.00172280      -0.04218383      -0.01833834
Cl       9.43333528       6.29612663       0.00043625       0.00947886       0.00330745       0.00379533
Cl       3.15111696      -0.00509985       6.29152305      -0.01581171       0.01570548      -0.00840479
Cl       9.42431687       0.00323819       6.29691646       0.03137992      -0.02063140      -0.00871840
Cl       3.14602320       6.27773645       6.30230158      -0.00685896       0.03710036      -0.01854221
Cl       9.44394265       6.28662680       6.28961025      -0.00615307       0.01326713       0.00942699
Cl      -0.01270930       3.13763285      -0.00496186       0.03815594       0.01026005      -0.00638563
Cl       6.30658161       3.14149192       0.00681839      -0.03752006      -0.00363730      -0.01132884
Cl      -0.00308576       9.44236643      -0.00099770      -0.01496392      -0.01073744       0.02604726
Cl       6.30302796       9.43453884      -0.01530903      -0.02063572       0.00610356       0.02304634
Cl      -0.01152209       3.14256818       6.27992566       0.04149947       0.00809473       0.01449883
Cl       6.29839952       3.14322927       6.31616232      -0.00795733       0.01264220      -0.03485682
Cl      -0.01507975       9.44192329       6.28113673       0.02463621      -0.00431268       0.01554693
Cl       6.28936338       9.44130115       6.26916254      -0.00493784      -0.00637326       0.02854124
Cl       0.00466566       0.02091603       3.14188187       0.00461175      -0.04839909      -0.00988453
Cl       6.29689548       0.01213617       3.14477672      -0.00417404      -0.03245108      -0.01083431
Cl      -0.00351220       6.27112959       3.15282616       0.00194321       0.04690936      -0.00886581
Cl       6.29316571       6.28376012       3.14768222      -0.01434569       0.01089876      -0.01074882
Cl      -0.00353941      -0.00339731       9.44447917       0.00852470       0.00961642      -0.02308448
Cl       6.28091357       0.01236011       9.42443940       0.01405059      -0.01687331       0.03973304
Cl      -0.00432962       6.31311642       9.44968980       0.02538831      -0.03132809      -0.01570984
Cl       6.29527344       6.28448165       9.43312353       0.00789417       0.01820301       0.00884113
64
Lattice="12.584 0.0 0.0 0.0 12.584 0.0 0.0 0.0 12.584" Properties=species:S:1:pos:R:3:forces:R:3 pbc="T T T"
K        0.00135671       0.00107220       0.00204648      -0.00239238      -0.00512126      -0.00703367
K        6.29231563      -0.00144678      -0.01146460       0.00059741       0.00249789       0.03079017
K       -0.00454115       6.30184321      -0.01072816       0.03148398      -0.04555724       0.02222156
K        6.29072840       6.28449943       0.00406869      -0.00458178       0.01767456      -0.01051919
K       -0.00326237       0.01547090       6.30002102       0.01453372      -0.03029277      -0.01907671
K        6.27950593       0.00740925       6.28720867       0.02964303      -0.03140794      -0.00902451
K       -0.00514600       6.29583516       6.29003771       0.01301386      -0.00578036       0.00109123
K        6.30155252       6.28495187       6.28876572      -0.02094196       0.01748473       0.01022665
K       -0.00593975       3.14104058       3.15994710       0.00958447       0.01235716      -0.03741479
K        6.29891192       3.16379641       3.17163163      -0.00772319      -0.03788203      -0.02556721
K       -0.00968321       9.43940116       3.13719318       0.02388643       0.00154765       0.02255022
K        6.28484790       9.43239614       3.13838364       0.01975523       0.01362576       0.02273196
K       -0.00989491       3.14525412       9.42878800       0.01925329      -0.01521849       0.01489003
K        6.30104523       3.13751943       9.46905088      -0.02914227       0.02338742      -0.04040612
K       -0.00388988       9.43941714       9.42800178       0.02099568      -0.01200906       0.00647905
K        6.30968488       9.44989197       9.44392435      -0.05289081      -0.02834647      -0.02599084
K        3.13315593       0.00280364       3.13774088       0.01672575       0.00099019       0.02114645
K        9.45324751       0.00878892       3.14990958      -0.04941598      -0.01617589       0.00260749
K        3.12226020       6.28286281       3.15583280       0.03742122       0.02062401      -0.01450275
K        9.45075280       6.30378867       3.13303506      -0.01989834      -0.01703835       0.02132331
K        3.14963948       0.01085212       9.42437183      -0.00398031      -0.03195202       0.02779351
K        9.43854491       0.00343539       9.43794754      -0.00085653      -0.00614083       0.00254689
K        3.12810234       6.28943999       9.43768213       0.05608753       0.00126331      -0.00364529
K        9.43714324       6.28706225       9.43652507       0.00326556       0.00374802      -0.01605308
K        3.14622690       3.15112151      -0.00008908      -0.02239947      -0.00361576       0.02060050
K        9.43452747       3.14762051      -0.01625397       0.00460858      -0.00965215       0.04306901
K        3.15139431       9.43869134       0.00335212       0.01324039      -0.00721361      -0.01950657
K        9.44823130       9.41916881      -0.01678315      -0.00709051       0.04208247       0.03436952
K        3.14936200       3.14662580       6.29665696      -0.00956833       0.00288791       0.01206647
K        9.43400269       3.15334050       6.30428158      -0.00686008      -0.00842023      -0.02325606
K        3.15146378       9.43608868       6.27387829      -0.00340815      -0.00349043       0.02271141
K        9.44631632       9.45091425       6.30140077      -0.02972122      -0.00939422      -0.03107019
Cl       3.13782754       3.15343491       3.15756048       0.00901963      -0.02034232      -0.00383422
Cl       9.45421212       3.13793587       3.14669064      -0.03267906       0.03675831      -0.00416323
Cl       3.15409668       9.43927107       3.13778191      -0.03108568       0.00063300      -0.00569994
Cl       9.44277012       9.44448358       3.14983482      -0.00831935      -0.00906860      -0.01566644
Cl       3.14881981       3.14410991       9.45573798      -0.00487582       0.00233150      -0.03244517
Cl       9.42961704       3.14082376       9.44106504       0.01104386       0.00969041      -0.00046517
Cl       3.15541350       9.42372324       9.42785222      -0.01944769       0.03125304       0.02054756
Cl       9.41824667       9.43902392       9.42977213       0.05931252      -0.00291909       0.01495556
Cl       3.14277846       0.00731075      -0.00346024       0.00842653      -0.01450915      -0.00816720
Cl       9.44093678      -0.00229641       0.00967633      -0.00698846      -0.00695184      -0.02854953
Cl       3.15137524       6.28577763       0.00126867      -0.01479859       0.01619365       0.00201242
Cl       9.44906139       6.29663074      -0.01101443      -0.01670087      -0.01689673       0.00620625
Cl       3.15318014      -0.01014914       6.30908032      -0.03524304       0.03069303      -0.04120376
Cl       9.44886495       0.00359582       6.29652752      -0.01571315       0.00577925       0.00388995
Cl       3.14453364       6.29948221       6.29124741      -0.00195256      -0.02842853       0.00568927
Cl       9.44097966       6.30141631       6.28933712       0.00146658      -0.00547082      -0.00095415
Cl      -0.00553797       3.13475331      -0.00768954      -0.00122610       0.02538833       0.01135014
Cl       6.27434001       3.15399526       0.02104433       0.03854626      -0.02057874      -0.00583080
Cl       0.01487725       9.42243612       0.01020373      -0.02144373       0.02824882      -0.03991362
Cl       6.30684502       9.43412887       0.00396966      -0.00935719       0.00430594      -0.01433014
Cl      -0.01945497       3.14936433       6.28431959       0.03363251       0.00277633       0.02295427
Cl       6.29462031       3.13108494       6.30038377      -0.00478616       0.03123374       0.01792761
Cl       0.01086909       9.43086517       6.28358596      -0.01979064       0.02455648       0.01169463
Cl       6.27106373       9.43603283       6.28913925       0.05244637       0.00152355       0.00274891
Cl      -0.01488623       0.00522716       3.14445548       0.03530722      -0.01259655       0.00953605
Cl       6.28186660      -0.00484876       3.15966823       0.01237878       0.02123238      -0.03725825
Cl       0.00665333       6.29139671       3.15514624      -0.02729835       0.00154703      -0.02618948
Cl       6.28101484       6.29302067       3.15042841       0.02322756      -0.00280874      -0.00917916
Cl      -0.00407441       0.00505155       9.43315085       0.00302334      -0.01682666       0.01089173
Cl       6.29772217       0.00621556       9.41178359      -0.00097012      -0.00269948       0.05132180
Cl       0.01252702       6.26222064       9.43479470      -0.04459009       0.05481839      -0.00129372
Cl       6.30287744       6.28952410       9.42629333      -0.01378930      -0.00432790       0.02726939
