K  Cl
 1.0000000000000000
    12.5839999999999996    0.0000000000000000    0.0000000000000000
     0.0000000000000000   12.5839999999999996    0.0000000000000000
     0.0000000000000000    0.0000000000000000   12.5839999999999996
 K   Cl 
  32  32
Direct
  0.0000000000000000  0.0000000000000000  0.0000000000000000
  0.5000000000000000  0.0000000000000000  0.0000000000000000
  0.0000000000000000  0.5000000000000000  0.0000000000000000
  0.5000000000000000  0.5000000000000000  0.0000000000000000
  0.0000000000000000  0.0000000000000000  0.5000000000000000
  0.5000000000000000  0.0000000000000000  0.5000000000000000
  0.0000000000000000  0.5000000000000000  0.5000000000000000
  0.5000000000000000  0.5000000000000000  0.5000000000000000
  0.0000000000000000  0.2500000000000000  0.2500000000000000
  0.5000000000000000  0.2500000000000000  0.2500000000000000
  0.0000000000000000  0.7500000000000000  0.2500000000000000
  0.5000000000000000  0.7500000000000000  0.2500000000000000
  0.0000000000000000  0.2500000000000000  0.7500000000000000
  0.5000000000000000  0.2500000000000000  0.7500000000000000
  0.0000000000000000  0.7500000000000000  0.7500000000000000
  0.5000000000000000  0.7500000000000000  0.7500000000000000
  0.2500000000000000  0.0000000000000000  0.2500000000000000
  0.7500000000000000  0.0000000000000000  0.2500000000000000
  0.2500000000000000  0.5000000000000000  0.2500000000000000
  0.7500000000000000  0.5000000000000000  0.2500000000000000
  0.2500000000000000  0.0000000000000000  0.7500000000000000
  0.7500000000000000  0.0000000000000000  0.7500000000000000
  0.2500000000000000  0.5000000000000000  0.7500000000000000
  0.7500000000000000  0.5000000000000000  0.7500000000000000
  0.2500000000000000  0.2500000000000000  0.0000000000000000
  0.7500000000000000  0.2500000000000000  0.0000000000000000
  0.2500000000000000  0.7500000000000000  0.0000000000000000
  0.7500000000000000  0.7500000000000000  0.0000000000000000
  0.2500000000000000  0.2500000000000000  0.5000000000000000
  0.7500000000000000  0.2500000000000000  0.5000000000000000
  0.2500000000000000  0.7500000000000000  0.5000000000000000
  0.7500000000000000  0.7500000000000000  0.5000000000000000
  0.2500000000000000  0.2500000000000000  0.2500000000000000
  0.7500000000000000  0.2500000000000000  0.2500000000000000
  0.2500000000000000  0.7500000000000000  0.2500000000000000
  0.7500000000000000  0.7500000000000000  0.2500000000000000
  0.2500000000000000  0.2500000000000000  0.7500000000000000
  0.7500000000000000  0.2500000000000000  0.7500000000000000
  0.2500000000000000  0.7500000000000000  0.7500000000000000
  0.7500000000000000  0.7500000000000000  0.7500000000000000
  0.2500000000000000  0.0000000000000000  0.0000000000000000
  0.7500000000000000  0.0000000000000000  0.0000000000000000
  0.2500000000000000  0.5000000000000000  0.0000000000000000
  0.7500000000000000  0.5000000000000000  0.0000000000000000
  0.2500000000000000  0.0000000000000000  0.5000000000000000
  0.7500000000000000  0.0000000000000000  0.5000000000000000
  0.2500000000000000  0.5000000000000000  0.5000000000000000
  0.7500000000000000  0.5000000000000000  0.5000000000000000
  0.0000000000000000  0.2500000000000000  0.0000000000000000
  0.5000000000000000  0.2500000000000000  0.0000000000000000
  0.0000000000000000  0.7500000000000000  0.0000000000000000
  0.5000000000000000  0.7500000000000000  0.0000000000000000
  0.0000000000000000  0.2500000000000000  0.5000000000000000
  0.5000000000000000  0.2500000000000000  0.5000000000000000
  0.0000000000000000  0.7500000000000000  0.5000000000000000
  0.5000000000000000  0.7500000000000000  0.5000000000000000
  0.0000000000000000  0.0000000000000000  0.2500000000000000
  0.5000000000000000  0.0000000000000000  0.2500000000000000
  0.0000000000000000  0.5000000000000000  0.2500000000000000
  0.5000000000000000  0.5000000000000000  0.2500000000000000
  0.0000000000000000  0.0000000000000000  0.7500000000000000
  0.5000000000000000  0.0000000000000000  0.7500000000000000
  0.0000000000000000  0.5000000000000000  0.7500000000000000
  0.5000000000000000  0.5000000000000000  0.7500000000000000
