Na Cl
 1.0000000000000000
    22.7612059047026847    0.0000000000000000    0.0000000000000000
     0.0000000000000000   22.7612059047026847    0.0000000000000000
     0.0000000000000000    0.0000000000000000   22.7612059047026847
 Na  Cl 
 256 256
Direct
  0.0000000000000000  0.0000000000000000  0.0000000000000000
  0.2500000000000000  0.0000000000000000  0.0000000000000000
  0.5000000000000000  0.0000000000000000  0.0000000000000000
  0.7500000000000000  0.0000000000000000  0.0000000000000000
  0.0000000000000000  0.2500000000000000  0.0000000000000000
  0.2500000000000000  0.2500000000000000  0.0000000000000000
  0.5000000000000000  0.2500000000000000  0.0000000000000000
  0.7500000000000000  0.2500000000000000  0.0000000000000000
  0.0000000000000000  0.5000000000000000  0.0000000000000000
  0.2500000000000000  0.5000000000000000  0.0000000000000000
  0.5000000000000000  0.5000000000000000  0.0000000000000000
  0.7500000000000000  0.5000000000000000  0.0000000000000000
  0.0000000000000000  0.7500000000000000  0.0000000000000000
  0.2500000000000000  0.7500000000000000  0.0000000000000000
  0.5000000000000000  0.7500000000000000  0.0000000000000000
  0.7500000000000000  0.7500000000000000  0.0000000000000000
  0.0000000000000000  0.0000000000000000  0.2500000000000000
  0.2500000000000000  0.0000000000000000  0.2500000000000000
  0.5000000000000000  0.0000000000000000  0.2500000000000000
  0.7500000000000000  0.0000000000000000  0.2500000000000000
  0.0000000000000000  0.2500000000000000  0.2500000000000000
  0.2500000000000000  0.2500000000000000  0.2500000000000000
  0.5000000000000000  0.2500000000000000  0.2500000000000000
  0.7500000000000000  0.2500000000000000  0.2500000000000000
  0.0000000000000000  0.5000000000000000  0.2500000000000000
  0.2500000000000000  0.5000000000000000  0.2500000000000000
  0.5000000000000000  0.5000000000000000  0.2500000000000000
  0.7500000000000000  0.5000000000000000  0.2500000000000000
  0.0000000000000000  0.7500000000000000  0.2500000000000000
  0.2500000000000000  0.7500000000000000  0.2500000000000000
  0.5000000000000000  0.7500000000000000  0.2500000000000000
  0.7500000000000000  0.7500000000000000  0.2500000000000000
  0.0000000000000000  0.0000000000000000  0.5000000000000000
  0.2500000000000000  0.0000000000000000  0.5000000000000000
  0.5000000000000000  0.0000000000000000  0.5000000000000000
  0.7500000000000000  0.0000000000000000  0.5000000000000000
  0.0000000000000000  0.2500000000000000  0.5000000000000000
  0.2500000000000000  0.2500000000000000  0.5000000000000000
  0.5000000000000000  0.2500000000000000  0.5000000000000000
  0.7500000000000000  0.2500000000000000  0.5000000000000000
  0.0000000000000000  0.5000000000000000  0.5000000000000000
  0.2500000000000000  0.5000000000000000  0.5000000000000000
  0.5000000000000000  0.5000000000000000  0.5000000000000000
  0.7500000000000000  0.5000000000000000  0.5000000000000000
  0.0000000000000000  0.7500000000000000  0.5000000000000000
  0.2500000000000000  0.7500000000000000  0.5000000000000000
  0.5000000000000000  0.7500000000000000  0.5000000000000000
  0.7500000000000000  0.7500000000000000  0.5000000000000000
  0.0000000000000000  0.0000000000000000  0.7500000000000000
  0.2500000000000000  0.0000000000000000  0.7500000000000000
  0.5000000000000000  0.0000000000000000  0.7500000000000000
  0.7500000000000000  0.0000000000000000  0.7500000000000000
  0.0000000000000000  0.2500000000000000  0.7500000000000000
  0.2500000000000000  0.2500000000000000  0.7500000000000000
  0.5000000000000000  0.2500000000000000  0.7500000000000000
  0.7500000000000000  0.2500000000000000  0.7500000000000000
  0.0000000000000000  0.5000000000000000  0.7500000000000000
  0.2500000000000000  0.5000000000000000  0.7500000000000000
  0.5000000000000000  0.5000000000000000  0.7500000000000000
  0.7500000000000000  0.5000000000000000  0.7500000000000000
  0.0000000000000000  0.7500000000000000  0.7500000000000000
  0.2500000000000000  0.7500000000000000  0.7500000000000000
  0.5000000000000000  0.7500000000000000  0.7500000000000000
  0.7500000000000000  0.7500000000000000  0.7500000000000000
  0.0000000000000000  0.1250000000840098  0.1250000000840098
  0.2500000000000000  0.1250000000840098  0.1250000000840098
  0.5000000000000000  0.1250000000840098  0.1250000000840098
  0.7500000000000000  0.1250000000840098  0.1250000000840098
  0.0000000000000000  0.3750000000840097  0.1250000000840098
  0.2500000000000000  0.3750000000840097  0.1250000000840098
  0.5000000000000000  0.3750000000840097  0.1250000000840098
  0.7500000000000000  0.3750000000840097  0.1250000000840098
  0.0000000000000000  0.6250000000840098  0.1250000000840098
  0.2500000000000000  0.6250000000840098  0.1250000000840098
  0.5000000000000000  0.6250000000840098  0.1250000000840098
  0.7500000000000000  0.6250000000840098  0.1250000000840098
  0.0000000000000000  0.8750000000840097  0.1250000000840098
  0.2500000000000000  0.8750000000840097  0.1250000000840098
  0.5000000000000000  0.8750000000840097  0.1250000000840098
  0.7500000000000000  0.8750000000840097  0.1250000000840098
  0.0000000000000000  0.1250000000840098  0.3750000000840097
  0.2500000000000000  0.1250000000840098  0.3750000000840097
  0.5000000000000000  0.1250000000840098  0.3750000000840097
  0.7500000000000000  0.1250000000840098  0.3750000000840097
  0.0000000000000000  0.3750000000840097  0.3750000000840097
  0.2500000000000000  0.3750000000840097  0.3750000000840097
  0.5000000000000000  0.3750000000840097  0.3750000000840097
  0.7500000000000000  0.3750000000840097  0.3750000000840097
  0.0000000000000000  0.6250000000840098  0.3750000000840097
  0.2500000000000000  0.6250000000840098  0.3750000000840097
  0.5000000000000000  0.6250000000840098  0.3750000000840097
  0.7500000000000000  0.6250000000840098  0.3750000000840097
  0.0000000000000000  0.8750000000840097  0.3750000000840097
  0.2500000000000000  0.8750000000840097  0.3750000000840097
  0.5000000000000000  0.8750000000840097  0.3750000000840097
  0.7500000000000000  0.8750000000840097  0.3750000000840097
  0.0000000000000000  0.1250000000840098  0.6250000000840098
  0.2500000000000000  0.1250000000840098  0.6250000000840098
  0.5000000000000000  0.1250000000840098  0.6250000000840098
  0.7500000000000000  0.1250000000840098  0.6250000000840098
  0.0000000000000000  0.3750000000840097  0.6250000000840098
  0.2500000000000000  0.3750000000840097  0.6250000000840098
  0.5000000000000000  0.3750000000840097  0.6250000000840098
  0.7500000000000000  0.3750000000840097  0.6250000000840098
  0.0000000000000000  0.6250000000840098  0.6250000000840098
  0.2500000000000000  0.6250000000840098  0.6250000000840098
  0.5000000000000000  0.6250000000840098  0.6250000000840098
  0.7500000000000000  0.6250000000840098  0.6250000000840098
  0.0000000000000000  0.8750000000840097  0.6250000000840098
  0.2500000000000000  0.8750000000840097  0.6250000000840098
  0.5000000000000000  0.8750000000840097  0.6250000000840098
  0.7500000000000000  0.8750000000840097  0.6250000000840098
  0.0000000000000000  0.1250000000840098  0.8750000000840097
  0.2500000000000000  0.1250000000840098  0.8750000000840097
  0.5000000000000000  0.1250000000840098  0.8750000000840097
  0.7500000000000000  0.1250000000840098  0.8750000000840097
  0.0000000000000000  0.3750000000840097  0.8750000000840097
  0.2500000000000000  0.3750000000840097  0.8750000000840097
  0.5000000000000000  0.3750000000840097  0.8750000000840097
  0.7500000000000000  0.3750000000840097  0.8750000000840097
  0.0000000000000000  0.6250000000840098  0.8750000000840097
  0.2500000000000000  0.6250000000840098  0.8750000000840097
  0.5000000000000000  0.6250000000840098  0.8750000000840097
  0.7500000000000000  0.6250000000840098  0.8750000000840097
  0.0000000000000000  0.8750000000840097  0.8750000000840097
  0.2500000000000000  0.8750000000840097  0.8750000000840097
  0.5000000000000000  0.8750000000840097  0.8750000000840097
  0.7500000000000000  0.8750000000840097  0.8750000000840097
  0.1250000000840098  0.0000000000000000  0.1250000000840098
  0.3750000000840097  0.0000000000000000  0.1250000000840098
  0.6250000000840098  0.0000000000000000  0.1250000000840098
  0.8750000000840097  0.0000000000000000  0.1250000000840098
  0.1250000000840098  0.2500000000000000  0.1250000000840098
  0.3750000000840097  0.2500000000000000  0.1250000000840098
  0.6250000000840098  0.2500000000000000  0.1250000000840098
  0.8750000000840097  0.2500000000000000  0.1250000000840098
  0.1250000000840098  0.5000000000000000  0.1250000000840098
  0.3750000000840097  0.5000000000000000  0.1250000000840098
  0.6250000000840098  0.5000000000000000  0.1250000000840098
  0.8750000000840097  0.5000000000000000  0.1250000000840098
  0.1250000000840098  0.7500000000000000  0.1250000000840098
  0.3750000000840097  0.7500000000000000  0.1250000000840098
  0.6250000000840098  0.7500000000000000  0.1250000000840098
  0.8750000000840097  0.7500000000000000  0.1250000000840098
  0.1250000000840098  0.0000000000000000  0.3750000000840097
  0.3750000000840097  0.0000000000000000  0.3750000000840097
  0.6250000000840098  0.0000000000000000  0.3750000000840097
  0.8750000000840097  0.0000000000000000  0.3750000000840097
  0.1250000000840098  0.2500000000000000  0.3750000000840097
  0.3750000000840097  0.2500000000000000  0.3750000000840097
  0.6250000000840098  0.2500000000000000  0.3750000000840097
  0.8750000000840097  0.2500000000000000  0.3750000000840097
  0.1250000000840098  0.5000000000000000  0.3750000000840097
  0.3750000000840097  0.5000000000000000  0.3750000000840097
  0.6250000000840098  0.5000000000000000  0.3750000000840097
  0.8750000000840097  0.5000000000000000  0.3750000000840097
  0.1250000000840098  0.7500000000000000  0.3750000000840097
  0.3750000000840097  0.7500000000000000  0.3750000000840097
  0.6250000000840098  0.7500000000000000  0.3750000000840097
  0.8750000000840097  0.7500000000000000  0.3750000000840097
  0.1250000000840098  0.0000000000000000  0.6250000000840098
  0.3750000000840097  0.0000000000000000  0.6250000000840098
  0.6250000000840098  0.0000000000000000  0.6250000000840098
  0.8750000000840097  0.0000000000000000  0.6250000000840098
  0.1250000000840098  0.2500000000000000  0.6250000000840098
  0.3750000000840097  0.2500000000000000  0.6250000000840098
  0.6250000000840098  0.2500000000000000  0.6250000000840098
  0.8750000000840097  0.2500000000000000  0.6250000000840098
  0.1250000000840098  0.5000000000000000  0.6250000000840098
  0.3750000000840097  0.5000000000000000  0.6250000000840098
  0.6250000000840098  0.5000000000000000  0.6250000000840098
  0.8750000000840097  0.5000000000000000  0.6250000000840098
  0.1250000000840098  0.7500000000000000  0.6250000000840098
  0.3750000000840097  0.7500000000000000  0.6250000000840098
  0.6250000000840098  0.7500000000000000  0.6250000000840098
  0.8750000000840097  0.7500000000000000  0.6250000000840098
  0.1250000000840098  0.0000000000000000  0.8750000000840097
  0.3750000000840097  0.0000000000000000  0.8750000000840097
  0.6250000000840098  0.0000000000000000  0.8750000000840097
  0.8750000000840097  0.0000000000000000  0.8750000000840097
  0.1250000000840098  0.2500000000000000  0.8750000000840097
  0.3750000000840097  0.2500000000000000  0.8750000000840097
  0.6250000000840098  0.2500000000000000  0.8750000000840097
  0.8750000000840097  0.2500000000000000  0.8750000000840097
  0.1250000000840098  0.5000000000000000  0.8750000000840097
  0.3750000000840097  0.5000000000000000  0.8750000000840097
  0.6250000000840098  0.5000000000000000  0.8750000000840097
  0.8750000000840097  0.5000000000000000  0.8750000000840097
  0.1250000000840098  0.7500000000000000  0.8750000000840097
  0.3750000000840097  0.7500000000000000  0.8750000000840097
  0.6250000000840098  0.7500000000000000  0.8750000000840097
  0.8750000000840097  0.7500000000000000  0.8750000000840097
  0.1250000000840098  0.1250000000840098  0.0000000000000000
  0.3750000000840097  0.1250000000840098  0.0000000000000000
  0.6250000000840098  0.1250000000840098  0.0000000000000000
  0.8750000000840097  0.1250000000840098  0.0000000000000000
  0.1250000000840098  0.3750000000840097  0.0000000000000000
  0.3750000000840097  0.3750000000840097  0.0000000000000000
  0.6250000000840098  0.3750000000840097  0.0000000000000000
  0.8750000000840097  0.3750000000840097  0.0000000000000000
  0.1250000000840098  0.6250000000840098  0.0000000000000000
  0.3750000000840097  0.6250000000840098  0.0000000000000000
  0.6250000000840098  0.6250000000840098  0.0000000000000000
  0.8750000000840097  0.6250000000840098  0.0000000000000000
  0.1250000000840098  0.8750000000840097  0.0000000000000000
  0.3750000000840097  0.8750000000840097  0.0000000000000000
  0.6250000000840098  0.8750000000840097  0.0000000000000000
  0.8750000000840097  0.8750000000840097  0.0000000000000000
  0.1250000000840098  0.1250000000840098  0.2500000000000000
  0.3750000000840097  0.1250000000840098  0.2500000000000000
  0.6250000000840098  0.1250000000840098  0.2500000000000000
  0.8750000000840097  0.1250000000840098  0.2500000000000000
  0.1250000000840098  0.3750000000840097  0.2500000000000000
  0.3750000000840097  0.3750000000840097  0.2500000000000000
  0.6250000000840098  0.3750000000840097  0.2500000000000000
  0.8750000000840097  0.3750000000840097  0.2500000000000000
  0.1250000000840098  0.6250000000840098  0.2500000000000000
  0.3750000000840097  0.6250000000840098  0.2500000000000000
  0.6250000000840098  0.6250000000840098  0.2500000000000000
  0.8750000000840097  0.6250000000840098  0.2500000000000000
  0.1250000000840098  0.8750000000840097  0.2500000000000000
  0.3750000000840097  0.8750000000840097  0.2500000000000000
  0.6250000000840098  0.8750000000840097  0.2500000000000000
  0.8750000000840097  0.8750000000840097  0.2500000000000000
  0.1250000000840098  0.1250000000840098  0.5000000000000000
  0.3750000000840097  0.1250000000840098  0.5000000000000000
  0.6250000000840098  0.1250000000840098  0.5000000000000000
  0.8750000000840097  0.1250000000840098  0.5000000000000000
  0.1250000000840098  0.3750000000840097  0.5000000000000000
  0.3750000000840097  0.3750000000840097  0.5000000000000000
  0.6250000000840098  0.3750000000840097  0.5000000000000000
  0.8750000000840097  0.3750000000840097  0.5000000000000000
  0.1250000000840098  0.6250000000840098  0.5000000000000000
  0.3750000000840097  0.6250000000840098  0.5000000000000000
  0.6250000000840098  0.6250000000840098  0.5000000000000000
  0.8750000000840097  0.6250000000840098  0.5000000000000000
  0.1250000000840098  0.8750000000840097  0.5000000000000000
  0.3750000000840097  0.8750000000840097  0.5000000000000000
  0.6250000000840098  0.8750000000840097  0.5000000000000000
  0.8750000000840097  0.8750000000840097  0.5000000000000000
  0.1250000000840098  0.1250000000840098  0.7500000000000000
  0.3750000000840097  0.1250000000840098  0.7500000000000000
  0.6250000000840098  0.1250000000840098  0.7500000000000000
  0.8750000000840097  0.1250000000840098  0.7500000000000000
  0.1250000000840098  0.3750000000840097  0.7500000000000000
  0.3750000000840097  0.3750000000840097  0.7500000000000000
  0.6250000000840098  0.3750000000840097  0.7500000000000000
  0.8750000000840097  0.3750000000840097  0.7500000000000000
  0.1250000000840098  0.6250000000840098  0.7500000000000000
  0.3750000000840097  0.6250000000840098  0.7500000000000000
  0.6250000000840098  0.6250000000840098  0.7500000000000000
  0.8750000000840097  0.6250000000840098  0.7500000000000000
  0.1250000000840098  0.8750000000840097  0.7500000000000000
  0.3750000000840097  0.8750000000840097  0.7500000000000000
  0.6250000000840098  0.8750000000840097  0.7500000000000000
  0.8750000000840097  0.8750000000840097  0.7500000000000000
  0.1250000000840098  0.1250000000840098  0.1250000000840098
  0.3750000000840097  0.1250000000840098  0.1250000000840098
  0.6250000000840098  0.1250000000840098  0.1250000000840098
  0.8750000000840097  0.1250000000840098  0.1250000000840098
  0.1250000000840098  0.3750000000840097  0.1250000000840098
  0.3750000000840097  0.3750000000840097  0.1250000000840098
  0.6250000000840098  0.3750000000840097  0.1250000000840098
  0.8750000000840097  0.3750000000840097  0.1250000000840098
  0.1250000000840098  0.6250000000840098  0.1250000000840098
  0.3750000000840097  0.6250000000840098  0.1250000000840098
  0.6250000000840098  0.6250000000840098  0.1250000000840098
  0.8750000000840097  0.6250000000840098  0.1250000000840098
  0.1250000000840098  0.8750000000840097  0.1250000000840098
  0.3750000000840097  0.8750000000840097  0.1250000000840098
  0.6250000000840098  0.8750000000840097  0.1250000000840098
  0.8750000000840097  0.8750000000840097  0.1250000000840098
  0.1250000000840098  0.1250000000840098  0.3750000000840097
  0.3750000000840097  0.1250000000840098  0.3750000000840097
  0.6250000000840098  0.1250000000840098  0.3750000000840097
  0.8750000000840097  0.1250000000840098  0.3750000000840097
  0.1250000000840098  0.3750000000840097  0.3750000000840097
  0.3750000000840097  0.3750000000840097  0.3750000000840097
  0.6250000000840098  0.3750000000840097  0.3750000000840097
  0.8750000000840097  0.3750000000840097  0.3750000000840097
  0.1250000000840098  0.6250000000840098  0.3750000000840097
  0.3750000000840097  0.6250000000840098  0.3750000000840097
  0.6250000000840098  0.6250000000840098  0.3750000000840097
  0.8750000000840097  0.6250000000840098  0.3750000000840097
  0.1250000000840098  0.8750000000840097  0.3750000000840097
  0.3750000000840097  0.8750000000840097  0.3750000000840097
  0.6250000000840098  0.8750000000840097  0.3750000000840097
  0.8750000000840097  0.8750000000840097  0.3750000000840097
  0.1250000000840098  0.1250000000840098  0.6250000000840098
  0.3750000000840097  0.1250000000840098  0.6250000000840098
  0.6250000000840098  0.1250000000840098  0.6250000000840098
  0.8750000000840097  0.1250000000840098  0.6250000000840098
  0.1250000000840098  0.3750000000840097  0.6250000000840098
  0.3750000000840097  0.3750000000840097  0.6250000000840098
  0.6250000000840098  0.3750000000840097  0.6250000000840098
  0.8750000000840097  0.3750000000840097  0.6250000000840098
  0.1250000000840098  0.6250000000840098  0.6250000000840098
  0.3750000000840097  0.6250000000840098  0.6250000000840098
  0.6250000000840098  0.6250000000840098  0.6250000000840098
  0.8750000000840097  0.6250000000840098  0.6250000000840098
  0.1250000000840098  0.8750000000840097  0.6250000000840098
  0.3750000000840097  0.8750000000840097  0.6250000000840098
  0.6250000000840098  0.8750000000840097  0.6250000000840098
  0.8750000000840097  0.8750000000840097  0.6250000000840098
  0.1250000000840098  0.1250000000840098  0.8750000000840097
  0.3750000000840097  0.1250000000840098  0.8750000000840097
  0.6250000000840098  0.1250000000840098  0.8750000000840097
  0.8750000000840097  0.1250000000840098  0.8750000000840097
  0.1250000000840098  0.3750000000840097  0.8750000000840097
  0.3750000000840097  0.3750000000840097  0.8750000000840097
  0.6250000000840098  0.3750000000840097  0.8750000000840097
  0.8750000000840097  0.3750000000840097  0.8750000000840097
  0.1250000000840098  0.6250000000840098  0.8750000000840097
  0.3750000000840097  0.6250000000840098  0.8750000000840097
  0.6250000000840098  0.6250000000840098  0.8750000000840097
  0.8750000000840097  0.6250000000840098  0.8750000000840097
  0.1250000000840098  0.8750000000840097  0.8750000000840097
  0.3750000000840097  0.8750000000840097  0.8750000000840097
  0.6250000000840098  0.8750000000840097  0.8750000000840097
  0.8750000000840097  0.8750000000840097  0.8750000000840097
  0.1250000000840098  0.0000000000000000  0.0000000000000000
  0.3750000000840097  0.0000000000000000  0.0000000000000000
  0.6250000000840098  0.0000000000000000  0.0000000000000000
  0.8750000000840097  0.0000000000000000  0.0000000000000000
  0.1250000000840098  0.2500000000000000  0.0000000000000000
  0.3750000000840097  0.2500000000000000  0.0000000000000000
  0.6250000000840098  0.2500000000000000  0.0000000000000000
  0.8750000000840097  0.2500000000000000  0.0000000000000000
  0.1250000000840098  0.5000000000000000  0.0000000000000000
  0.3750000000840097  0.5000000000000000  0.0000000000000000
  0.6250000000840098  0.5000000000000000  0.0000000000000000
  0.8750000000840097  0.5000000000000000  0.0000000000000000
  0.1250000000840098  0.7500000000000000  0.0000000000000000
  0.3750000000840097  0.7500000000000000  0.0000000000000000
  0.6250000000840098  0.7500000000000000  0.0000000000000000
  0.8750000000840097  0.7500000000000000  0.0000000000000000
  0.1250000000840098  0.0000000000000000  0.2500000000000000
  0.3750000000840097  0.0000000000000000  0.2500000000000000
  0.6250000000840098  0.0000000000000000  0.2500000000000000
  0.8750000000840097  0.0000000000000000  0.2500000000000000
  0.1250000000840098  0.2500000000000000  0.2500000000000000
  0.3750000000840097  0.2500000000000000  0.2500000000000000
  0.6250000000840098  0.2500000000000000  0.2500000000000000
  0.8750000000840097  0.2500000000000000  0.2500000000000000
  0.1250000000840098  0.5000000000000000  0.2500000000000000
  0.3750000000840097  0.5000000000000000  0.2500000000000000
  0.6250000000840098  0.5000000000000000  0.2500000000000000
  0.8750000000840097  0.5000000000000000  0.2500000000000000
  0.1250000000840098  0.7500000000000000  0.2500000000000000
  0.3750000000840097  0.7500000000000000  0.2500000000000000
  0.6250000000840098  0.7500000000000000  0.2500000000000000
  0.8750000000840097  0.7500000000000000  0.2500000000000000
  0.1250000000840098  0.0000000000000000  0.5000000000000000
  0.3750000000840097  0.0000000000000000  0.5000000000000000
  0.6250000000840098  0.0000000000000000  0.5000000000000000
  0.8750000000840097  0.0000000000000000  0.5000000000000000
  0.1250000000840098  0.2500000000000000  0.5000000000000000
  0.3750000000840097  0.2500000000000000  0.5000000000000000
  0.6250000000840098  0.2500000000000000  0.5000000000000000
  0.8750000000840097  0.2500000000000000  0.5000000000000000
  0.1250000000840098  0.5000000000000000  0.5000000000000000
  0.3750000000840097  0.5000000000000000  0.5000000000000000
  0.6250000000840098  0.5000000000000000  0.5000000000000000
  0.8750000000840097  0.5000000000000000  0.5000000000000000
  0.1250000000840098  0.7500000000000000  0.5000000000000000
  0.3750000000840097  0.7500000000000000  0.5000000000000000
  0.6250000000840098  0.7500000000000000  0.5000000000000000
  0.8750000000840097  0.7500000000000000  0.5000000000000000
  0.1250000000840098  0.0000000000000000  0.7500000000000000
  0.3750000000840097  0.0000000000000000  0.7500000000000000
  0.6250000000840098  0.0000000000000000  0.7500000000000000
  0.8750000000840097  0.0000000000000000  0.7500000000000000
  0.1250000000840098  0.2500000000000000  0.7500000000000000
  0.3750000000840097  0.2500000000000000  0.7500000000000000
  0.6250000000840098  0.2500000000000000  0.7500000000000000
  0.8750000000840097  0.2500000000000000  0.7500000000000000
  0.1250000000840098  0.5000000000000000  0.7500000000000000
  0.3750000000840097  0.5000000000000000  0.7500000000000000
  0.6250000000840098  0.5000000000000000  0.7500000000000000
  0.8750000000840097  0.5000000000000000  0.7500000000000000
  0.1250000000840098  0.7500000000000000  0.7500000000000000
  0.3750000000840097  0.7500000000000000  0.7500000000000000
  0.6250000000840098  0.7500000000000000  0.7500000000000000
  0.8750000000840097  0.7500000000000000  0.7500000000000000
  0.0000000000000000  0.1250000000840098  0.0000000000000000
  0.2500000000000000  0.1250000000840098  0.0000000000000000
  0.5000000000000000  0.1250000000840098  0.0000000000000000
  0.7500000000000000  0.1250000000840098  0.0000000000000000
  0.0000000000000000  0.3750000000840097  0.0000000000000000
  0.2500000000000000  0.3750000000840097  0.0000000000000000
  0.5000000000000000  0.3750000000840097  0.0000000000000000
  0.7500000000000000  0.3750000000840097  0.0000000000000000
  0.0000000000000000  0.6250000000840098  0.0000000000000000
  0.2500000000000000  0.6250000000840098  0.0000000000000000
  0.5000000000000000  0.6250000000840098  0.0000000000000000
  0.7500000000000000  0.6250000000840098  0.0000000000000000
  0.0000000000000000  0.8750000000840097  0.0000000000000000
  0.2500000000000000  0.8750000000840097  0.0000000000000000
  0.5000000000000000  0.8750000000840097  0.0000000000000000
  0.7500000000000000  0.8750000000840097  0.0000000000000000
  0.0000000000000000  0.1250000000840098  0.2500000000000000
  0.2500000000000000  0.1250000000840098  0.2500000000000000
  0.5000000000000000  0.1250000000840098  0.2500000000000000
  0.7500000000000000  0.1250000000840098  0.2500000000000000
  0.0000000000000000  0.3750000000840097  0.2500000000000000
  0.2500000000000000  0.3750000000840097  0.2500000000000000
  0.5000000000000000  0.3750000000840097  0.2500000000000000
  0.7500000000000000  0.3750000000840097  0.2500000000000000
  0.0000000000000000  0.6250000000840098  0.2500000000000000
  0.2500000000000000  0.6250000000840098  0.2500000000000000
  0.5000000000000000  0.6250000000840098  0.2500000000000000
  0.7500000000000000  0.6250000000840098  0.2500000000000000
  0.0000000000000000  0.8750000000840097  0.2500000000000000
  0.2500000000000000  0.8750000000840097  0.2500000000000000
  0.5000000000000000  0.8750000000840097  0.2500000000000000
  0.7500000000000000  0.8750000000840097  0.2500000000000000
  0.0000000000000000  0.1250000000840098  0.5000000000000000
  0.2500000000000000  0.1250000000840098  0.5000000000000000
  0.5000000000000000  0.1250000000840098  0.5000000000000000
  0.7500000000000000  0.1250000000840098  0.5000000000000000
  0.0000000000000000  0.3750000000840097  0.5000000000000000
  0.2500000000000000  0.3750000000840097  0.5000000000000000
  0.5000000000000000  0.3750000000840097  0.5000000000000000
  0.7500000000000000  0.3750000000840097  0.5000000000000000
  0.0000000000000000  0.6250000000840098  0.5000000000000000
  0.2500000000000000  0.6250000000840098  0.5000000000000000
  0.5000000000000000  0.6250000000840098  0.5000000000000000
  0.7500000000000000  0.6250000000840098  0.5000000000000000
  0.0000000000000000  0.8750000000840097  0.5000000000000000
  0.2500000000000000  0.8750000000840097  0.5000000000000000
  0.5000000000000000  0.8750000000840097  0.5000000000000000
  0.7500000000000000  0.8750000000840097  0.5000000000000000
  0.0000000000000000  0.1250000000840098  0.7500000000000000
  0.2500000000000000  0.1250000000840098  0.7500000000000000
  0.5000000000000000  0.1250000000840098  0.7500000000000000
  0.7500000000000000  0.1250000000840098  0.7500000000000000
  0.0000000000000000  0.3750000000840097  0.7500000000000000
  0.2500000000000000  0.3750000000840097  0.7500000000000000
  0.5000000000000000  0.3750000000840097  0.7500000000000000
  0.7500000000000000  0.3750000000840097  0.7500000000000000
  0.0000000000000000  0.6250000000840098  0.7500000000000000
  0.2500000000000000  0.6250000000840098  0.7500000000000000
  0.5000000000000000  0.6250000000840098  0.7500000000000000
  0.7500000000000000  0.6250000000840098  0.7500000000000000
  0.0000000000000000  0.8750000000840097  0.7500000000000000
  0.2500000000000000  0.8750000000840097  0.7500000000000000
  0.5000000000000000  0.8750000000840097  0.7500000000000000
  0.7500000000000000  0.8750000000840097  0.7500000000000000
  0.0000000000000000  0.0000000000000000  0.1250000000840098
  0.2500000000000000  0.0000000000000000  0.1250000000840098
  0.5000000000000000  0.0000000000000000  0.1250000000840098
  0.7500000000000000  0.0000000000000000  0.1250000000840098
  0.0000000000000000  0.2500000000000000  0.1250000000840098
  0.2500000000000000  0.2500000000000000  0.1250000000840098
  0.5000000000000000  0.2500000000000000  0.1250000000840098
  0.7500000000000000  0.2500000000000000  0.1250000000840098
  0.0000000000000000  0.5000000000000000  0.1250000000840098
  0.2500000000000000  0.5000000000000000  0.1250000000840098
  0.5000000000000000  0.5000000000000000  0.1250000000840098
  0.7500000000000000  0.5000000000000000  0.1250000000840098
  0.0000000000000000  0.7500000000000000  0.1250000000840098
  0.2500000000000000  0.7500000000000000  0.1250000000840098
  0.5000000000000000  0.7500000000000000  0.1250000000840098
  0.7500000000000000  0.7500000000000000  0.1250000000840098
  0.0000000000000000  0.0000000000000000  0.3750000000840097
  0.2500000000000000  0.0000000000000000  0.3750000000840097
  0.5000000000000000  0.0000000000000000  0.3750000000840097
  0.7500000000000000  0.0000000000000000  0.3750000000840097
  0.0000000000000000  0.2500000000000000  0.3750000000840097
  0.2500000000000000  0.2500000000000000  0.3750000000840097
  0.5000000000000000  0.2500000000000000  0.3750000000840097
  0.7500000000000000  0.2500000000000000  0.3750000000840097
  0.0000000000000000  0.5000000000000000  0.3750000000840097
  0.2500000000000000  0.5000000000000000  0.3750000000840097
  0.5000000000000000  0.5000000000000000  0.3750000000840097
  0.7500000000000000  0.5000000000000000  0.3750000000840097
  0.0000000000000000  0.7500000000000000  0.3750000000840097
  0.2500000000000000  0.7500000000000000  0.3750000000840097
  0.5000000000000000  0.7500000000000000  0.3750000000840097
  0.7500000000000000  0.7500000000000000  0.3750000000840097
  0.0000000000000000  0.0000000000000000  0.6250000000840098
  0.2500000000000000  0.0000000000000000  0.6250000000840098
  0.5000000000000000  0.0000000000000000  0.6250000000840098
  0.7500000000000000  0.0000000000000000  0.6250000000840098
  0.0000000000000000  0.2500000000000000  0.6250000000840098
  0.2500000000000000  0.2500000000000000  0.6250000000840098
  0.5000000000000000  0.2500000000000000  0.6250000000840098
  0.7500000000000000  0.2500000000000000  0.6250000000840098
  0.0000000000000000  0.5000000000000000  0.6250000000840098
  0.2500000000000000  0.5000000000000000  0.6250000000840098
  0.5000000000000000  0.5000000000000000  0.6250000000840098
  0.7500000000000000  0.5000000000000000  0.6250000000840098
  0.0000000000000000  0.7500000000000000  0.6250000000840098
  0.2500000000000000  0.7500000000000000  0.6250000000840098
  0.5000000000000000  0.7500000000000000  0.6250000000840098
  0.7500000000000000  0.7500000000000000  0.6250000000840098
  0.0000000000000000  0.0000000000000000  0.8750000000840097
  0.2500000000000000  0.0000000000000000  0.8750000000840097
  0.5000000000000000  0.0000000000000000  0.8750000000840097
  0.7500000000000000  0.0000000000000000  0.8750000000840097
  0.0000000000000000  0.2500000000000000  0.8750000000840097
  0.2500000000000000  0.2500000000000000  0.8750000000840097
  0.5000000000000000  0.2500000000000000  0.8750000000840097
  0.7500000000000000  0.2500000000000000  0.8750000000840097
  0.0000000000000000  0.5000000000000000  0.8750000000840097
  0.2500000000000000  0.5000000000000000  0.8750000000840097
  0.5000000000000000  0.5000000000000000  0.8750000000840097
  0.7500000000000000  0.5000000000000000  0.8750000000840097
  0.0000000000000000  0.7500000000000000  0.8750000000840097
  0.2500000000000000  0.7500000000000000  0.8750000000840097
  0.5000000000000000  0.7500000000000000  0.8750000000840097
  0.7500000000000000  0.7500000000000000  0.8750000000840097
