512
Lattice="22.7612059 0.0 0.0 0.0 22.7612059 0.0 0.0 0.0 22.7612059" Properties=species:S:1:pos:R:3:forces:R:3:displacements:R:3 pbc="T T T"
Na       0.00999991       0.00000000       0.00000000      -0.01624456      -0.00000000      -0.00000000       0.00999991       0.00000000       0.00000000
Na       5.69030148       0.00000000       0.00000000       0.00069027      -0.00000000      -0.00000000       0.00000000       0.00000000       0.00000000
Na      11.38060295       0.00000000       0.00000000       0.00003313      -0.00000000      -0.00000000      -0.00000000       0.00000000       0.00000000
Na      17.07090443       0.00000000       0.00000000       0.00068932      -0.00000000      -0.00000000       0.00000000       0.00000000       0.00000000
Na       0.00000000       5.69030148       0.00000000       0.00024757      -0.00000121      -0.00000000       0.00000000       0.00000000       0.00000000
Na       5.69030148       5.69030148       0.00000000      -0.00007910       0.00004000      -0.00000000       0.00000000       0.00000000       0.00000000
Na      11.38060295       5.69030148       0.00000000       0.00000983       0.00000035      -0.00000000      -0.00000000       0.00000000       0.00000000
Na      17.07090443       5.69030148       0.00000000      -0.00007901      -0.00003710      -0.00000000       0.00000000       0.00000000       0.00000000
Na       0.00000000      11.38060295       0.00000000       0.00001989      -0.00000000      -0.00000000       0.00000000      -0.00000000       0.00000000
Na       5.69030148      11.38060295       0.00000000      -0.00001282      -0.00000000      -0.00000000       0.00000000      -0.00000000       0.00000000
Na      11.38060295      11.38060295       0.00000000      -0.00000016      -0.00000000      -0.00000000      -0.00000000      -0.00000000       0.00000000
Na      17.07090443      11.38060295       0.00000000      -0.00000581      -0.00000000      -0.00000000       0.00000000      -0.00000000       0.00000000
Na       0.00000000      17.07090443       0.00000000       0.00024757       0.00000121      -0.00000000       0.00000000       0.00000000       0.00000000
Na       5.69030148      17.07090443       0.00000000      -0.00007910      -0.00004001      -0.00000000       0.00000000       0.00000000       0.00000000
Na      11.38060295      17.07090443       0.00000000       0.00000983      -0.00000035      -0.00000000      -0.00000000       0.00000000       0.00000000
Na      17.07090443      17.07090443       0.00000000      -0.00007901       0.00003709      -0.00000000       0.00000000       0.00000000       0.00000000
Na       0.00000000       0.00000000       5.69030148       0.00024757      -0.00000000      -0.00000121       0.00000000       0.00000000       0.00000000
Na       5.69030148       0.00000000       5.69030148      -0.00007910      -0.00000000       0.00004000       0.00000000       0.00000000       0.00000000
Na      11.38060295       0.00000000       5.69030148       0.00000983      -0.00000000       0.00000035      -0.00000000       0.00000000       0.00000000
Na      17.07090443       0.00000000       5.69030148      -0.00007901      -0.00000000      -0.00003710       0.00000000       0.00000000       0.00000000
Na       0.00000000       5.69030148       5.69030148       0.00001875       0.00000151       0.00000151       0.00000000       0.00000000       0.00000000
Na       5.69030148       5.69030148       5.69030148      -0.00000936      -0.00000605      -0.00000605       0.00000000       0.00000000       0.00000000
Na      11.38060295       5.69030148       5.69030148      -0.00000074      -0.00000158      -0.00000158      -0.00000000       0.00000000       0.00000000
Na      17.07090443       5.69030148       5.69030148      -0.00000457       0.00000695       0.00000695       0.00000000       0.00000000       0.00000000
Na       0.00000000      11.38060295       5.69030148       0.00000884      -0.00000000       0.00000319       0.00000000      -0.00000000       0.00000000
Na       5.69030148      11.38060295       5.69030148      -0.00000364      -0.00000000      -0.00000607       0.00000000      -0.00000000       0.00000000
Na      11.38060295      11.38060295       5.69030148      -0.00000011      -0.00000000       0.00000154      -0.00000000      -0.00000000       0.00000000
Na      17.07090443      11.38060295       5.69030148      -0.00000357      -0.00000000       0.00000742       0.00000000      -0.00000000       0.00000000
Na       0.00000000      17.07090443       5.69030148       0.00001875      -0.00000151       0.00000151       0.00000000       0.00000000       0.00000000
Na       5.69030148      17.07090443       5.69030148      -0.00000936       0.00000604      -0.00000605       0.00000000       0.00000000       0.00000000
Na      11.38060295      17.07090443       5.69030148      -0.00000075       0.00000158      -0.00000158      -0.00000000       0.00000000       0.00000000
Na      17.07090443      17.07090443       5.69030148      -0.00000457      -0.00000696       0.00000695       0.00000000       0.00000000       0.00000000
Na       0.00000000       0.00000000      11.38060295       0.00001989      -0.00000000      -0.00000000       0.00000000       0.00000000      -0.00000000
Na       5.69030148       0.00000000      11.38060295      -0.00001282      -0.00000000      -0.00000000       0.00000000       0.00000000      -0.00000000
Na      11.38060295       0.00000000      11.38060295      -0.00000016      -0.00000000      -0.00000000      -0.00000000       0.00000000      -0.00000000
Na      17.07090443       0.00000000      11.38060295      -0.00000581      -0.00000000      -0.00000000       0.00000000       0.00000000      -0.00000000
Na       0.00000000       5.69030148      11.38060295       0.00000884       0.00000319      -0.00000000       0.00000000       0.00000000      -0.00000000
Na       5.69030148       5.69030148      11.38060295      -0.00000364      -0.00000607      -0.00000000       0.00000000       0.00000000      -0.00000000
Na      11.38060295       5.69030148      11.38060295      -0.00000011       0.00000154      -0.00000000      -0.00000000       0.00000000      -0.00000000
Na      17.07090443       5.69030148      11.38060295      -0.00000357       0.00000742      -0.00000000       0.00000000       0.00000000      -0.00000000
Na       0.00000000      11.38060295      11.38060295       0.00000464      -0.00000000      -0.00000000       0.00000000      -0.00000000      -0.00000000
Na       5.69030148      11.38060295      11.38060295      -0.00001334      -0.00000000      -0.00000000       0.00000000      -0.00000000      -0.00000000
Na      11.38060295      11.38060295      11.38060295       0.00000687      -0.00000000      -0.00000000      -0.00000000      -0.00000000      -0.00000000
Na      17.07090443      11.38060295      11.38060295      -0.00000786      -0.00000000      -0.00000000       0.00000000      -0.00000000      -0.00000000
Na       0.00000000      17.07090443      11.38060295       0.00000884      -0.00000319      -0.00000000       0.00000000       0.00000000      -0.00000000
Na       5.69030148      17.07090443      11.38060295      -0.00000364       0.00000606      -0.00000000       0.00000000       0.00000000      -0.00000000
Na      11.38060295      17.07090443      11.38060295      -0.00000011      -0.00000154      -0.00000000      -0.00000000       0.00000000      -0.00000000
Na      17.07090443      17.07090443      11.38060295      -0.00000357      -0.00000743      -0.00000000       0.00000000       0.00000000      -0.00000000
Na       0.00000000       0.00000000      17.07090443       0.00024757      -0.00000000       0.00000121       0.00000000       0.00000000       0.00000000
Na       5.69030148       0.00000000      17.07090443      -0.00007910      -0.00000000      -0.00004001       0.00000000       0.00000000       0.00000000
Na      11.38060295       0.00000000      17.07090443       0.00000983      -0.00000000      -0.00000035      -0.00000000       0.00000000       0.00000000
Na      17.07090443       0.00000000      17.07090443      -0.00007901      -0.00000000       0.00003709       0.00000000       0.00000000       0.00000000
Na       0.00000000       5.69030148      17.07090443       0.00001875       0.00000151      -0.00000151       0.00000000       0.00000000       0.00000000
Na       5.69030148       5.69030148      17.07090443      -0.00000936      -0.00000605       0.00000604       0.00000000       0.00000000       0.00000000
Na      11.38060295       5.69030148      17.07090443      -0.00000075      -0.00000158       0.00000158      -0.00000000       0.00000000       0.00000000
Na      17.07090443       5.69030148      17.07090443      -0.00000457       0.00000695      -0.00000696       0.00000000       0.00000000       0.00000000
Na       0.00000000      11.38060295      17.07090443       0.00000884      -0.00000000      -0.00000319       0.00000000      -0.00000000       0.00000000
Na       5.69030148      11.38060295      17.07090443      -0.00000364      -0.00000000       0.00000606       0.00000000      -0.00000000       0.00000000
Na      11.38060295      11.38060295      17.07090443      -0.00000011      -0.00000000      -0.00000154      -0.00000000      -0.00000000       0.00000000
Na      17.07090443      11.38060295      17.07090443      -0.00000357      -0.00000000      -0.00000743       0.00000000      -0.00000000       0.00000000
Na       0.00000000      17.07090443      17.07090443       0.00001875      -0.00000151      -0.00000151       0.00000000       0.00000000       0.00000000
Na       5.69030148      17.07090443      17.07090443      -0.00000936       0.00000604       0.00000604       0.00000000       0.00000000       0.00000000
Na      11.38060295      17.07090443      17.07090443      -0.00000074       0.00000158       0.00000158      -0.00000000       0.00000000       0.00000000
Na      17.07090443      17.07090443      17.07090443      -0.00000457      -0.00000696      -0.00000696       0.00000000       0.00000000       0.00000000
Na       0.00000000       2.84515074       2.84515074       0.00036800      -0.00000449      -0.00000449       0.00000000       0.00000000       0.00000000
Na       5.69030148       2.84515074       2.84515074      -0.00005559       0.00000494       0.00000494       0.00000000       0.00000000       0.00000000
Na      11.38060295       2.84515074       2.84515074       0.00001246      -0.00000240      -0.00000240      -0.00000000       0.00000000       0.00000000
Na      17.07090443       2.84515074       2.84515074      -0.00005575      -0.00000733      -0.00000733       0.00000000       0.00000000       0.00000000
Na       0.00000000       8.53545221       2.84515074       0.00002839       0.00000274      -0.00000411       0.00000000      -0.00000001       0.00000000
Na       5.69030148       8.53545221       2.84515074      -0.00001354       0.00000559      -0.00001241       0.00000000      -0.00000001       0.00000000
Na      11.38060295       8.53545221       2.84515074      -0.00000331       0.00000290      -0.00000526      -0.00000000      -0.00000001       0.00000000
Na      17.07090443       8.53545221       2.84515074      -0.00001007      -0.00000123       0.00000401       0.00000000      -0.00000001       0.00000000
Na       0.00000000      14.22575369       2.84515074       0.00002839      -0.00000274      -0.00000411       0.00000000      -0.00000000       0.00000000
Na       5.69030148      14.22575369       2.84515074      -0.00001354      -0.00000559      -0.00001241       0.00000000      -0.00000000       0.00000000
Na      11.38060295      14.22575369       2.84515074      -0.00000331      -0.00000290      -0.00000526      -0.00000000      -0.00000000       0.00000000
Na      17.07090443      14.22575369       2.84515074      -0.00001007       0.00000124       0.00000401       0.00000000      -0.00000000       0.00000000
Na       0.00000000      19.91605516       2.84515074       0.00036800       0.00000450      -0.00000449       0.00000000      -0.00000001       0.00000000
Na       5.69030148      19.91605516       2.84515074      -0.00005559      -0.00000494       0.00000494       0.00000000      -0.00000001       0.00000000
Na      11.38060295      19.91605516       2.84515074       0.00001246       0.00000241      -0.00000240      -0.00000000      -0.00000001       0.00000000
Na      17.07090443      19.91605516       2.84515074      -0.00005575       0.00000734      -0.00000733       0.00000000      -0.00000001       0.00000000
Na       0.00000000       2.84515074       8.53545221       0.00002839      -0.00000411       0.00000274       0.00000000       0.00000000      -0.00000001
Na       5.69030148       2.84515074       8.53545221      -0.00001354      -0.00001241       0.00000559       0.00000000       0.00000000      -0.00000001
Na      11.38060295       2.84515074       8.53545221      -0.00000331      -0.00000526       0.00000290      -0.00000000       0.00000000      -0.00000001
Na      17.07090443       2.84515074       8.53545221      -0.00001007       0.00000401      -0.00000123       0.00000000       0.00000000      -0.00000001
Na       0.00000000       8.53545221       8.53545221       0.00000428       0.00000157       0.00000157       0.00000000      -0.00000001      -0.00000001
Na       5.69030148       8.53545221       8.53545221      -0.00000274      -0.00000070      -0.00000070       0.00000000      -0.00000001      -0.00000001
Na      11.38060295       8.53545221       8.53545221       0.00000127       0.00000240       0.00000240      -0.00000000      -0.00000001      -0.00000001
Na      17.07090443       8.53545221       8.53545221      -0.00000046       0.00000270       0.00000270       0.00000000      -0.00000001      -0.00000001
Na       0.00000000      14.22575369       8.53545221       0.00000428      -0.00000157       0.00000157       0.00000000      -0.00000000      -0.00000001
Na       5.69030148      14.22575369       8.53545221      -0.00000274       0.00000071      -0.00000070       0.00000000      -0.00000000      -0.00000001
Na      11.38060295      14.22575369       8.53545221       0.00000127      -0.00000240       0.00000240      -0.00000000      -0.00000000      -0.00000001
Na      17.07090443      14.22575369       8.53545221      -0.00000046      -0.00000270       0.00000270       0.00000000      -0.00000000      -0.00000001
Na       0.00000000      19.91605516       8.53545221       0.00002839       0.00000412       0.00000274       0.00000000      -0.00000001      -0.00000001
Na       5.69030148      19.91605516       8.53545221      -0.00001354       0.00001242       0.00000559       0.00000000      -0.00000001      -0.00000001
Na      11.38060295      19.91605516       8.53545221      -0.00000331       0.00000527       0.00000290      -0.00000000      -0.00000001      -0.00000001
Na      17.07090443      19.91605516       8.53545221      -0.00001007      -0.00000400      -0.00000123       0.00000000      -0.00000001      -0.00000001
Na       0.00000000       2.84515074      14.22575369       0.00002839      -0.00000411      -0.00000274       0.00000000       0.00000000      -0.00000000
Na       5.69030148       2.84515074      14.22575369      -0.00001354      -0.00001241      -0.00000559       0.00000000       0.00000000      -0.00000000
Na      11.38060295       2.84515074      14.22575369      -0.00000331      -0.00000526      -0.00000290      -0.00000000       0.00000000      -0.00000000
Na      17.07090443       2.84515074      14.22575369      -0.00001007       0.00000401       0.00000124       0.00000000       0.00000000      -0.00000000
Na       0.00000000       8.53545221      14.22575369       0.00000428       0.00000157      -0.00000157       0.00000000      -0.00000001      -0.00000000
Na       5.69030148       8.53545221      14.22575369      -0.00000274      -0.00000070       0.00000071       0.00000000      -0.00000001      -0.00000000
Na      11.38060295       8.53545221      14.22575369       0.00000127       0.00000240      -0.00000240      -0.00000000      -0.00000001      -0.00000000
Na      17.07090443       8.53545221      14.22575369      -0.00000046       0.00000270      -0.00000270       0.00000000      -0.00000001      -0.00000000
Na       0.00000000      14.22575369      14.22575369       0.00000428      -0.00000157      -0.00000157       0.00000000      -0.00000000      -0.00000000
Na       5.69030148      14.22575369      14.22575369      -0.00000274       0.00000071       0.00000071       0.00000000      -0.00000000      -0.00000000
Na      11.38060295      14.22575369      14.22575369       0.00000127      -0.00000240      -0.00000240      -0.00000000      -0.00000000      -0.00000000
Na      17.07090443      14.22575369      14.22575369      -0.00000046      -0.00000270      -0.00000270       0.00000000      -0.00000000      -0.00000000
Na       0.00000000      19.91605516      14.22575369       0.00002839       0.00000412      -0.00000274       0.00000000      -0.00000001      -0.00000000
Na       5.69030148      19.91605516      14.22575369      -0.00001354       0.00001242      -0.00000559       0.00000000      -0.00000001      -0.00000000
Na      11.38060295      19.91605516      14.22575369      -0.00000331       0.00000527      -0.00000290      -0.00000000      -0.00000001      -0.00000000
Na      17.07090443      19.91605516      14.22575369      -0.00001007      -0.00000400       0.00000124       0.00000000      -0.00000001      -0.00000000
Na       0.00000000       2.84515074      19.91605516       0.00036800      -0.00000449       0.00000450       0.00000000       0.00000000      -0.00000001
Na       5.69030148       2.84515074      19.91605516      -0.00005559       0.00000494      -0.00000494       0.00000000       0.00000000      -0.00000001
Na      11.38060295       2.84515074      19.91605516       0.00001246      -0.00000240       0.00000241      -0.00000000       0.00000000      -0.00000001
Na      17.07090443       2.84515074      19.91605516      -0.00005575      -0.00000733       0.00000734       0.00000000       0.00000000      -0.00000001
Na       0.00000000       8.53545221      19.91605516       0.00002839       0.00000274       0.00000412       0.00000000      -0.00000001      -0.00000001
Na       5.69030148       8.53545221      19.91605516      -0.00001354       0.00000559       0.00001242       0.00000000      -0.00000001      -0.00000001
Na      11.38060295       8.53545221      19.91605516      -0.00000331       0.00000290       0.00000527      -0.00000000      -0.00000001      -0.00000001
Na      17.07090443       8.53545221      19.91605516      -0.00001007      -0.00000123      -0.00000400       0.00000000      -0.00000001      -0.00000001
Na       0.00000000      14.22575369      19.91605516       0.00002839      -0.00000274       0.00000412       0.00000000      -0.00000000      -0.00000001
Na       5.69030148      14.22575369      19.91605516      -0.00001354      -0.00000559       0.00001242       0.00000000      -0.00000000      -0.00000001
Na      11.38060295      14.22575369      19.91605516      -0.00000331      -0.00000290       0.00000527      -0.00000000      -0.00000000      -0.00000001
Na      17.07090443      14.22575369      19.91605516      -0.00001007       0.00000124      -0.00000400       0.00000000      -0.00000000      -0.00000001
Na       0.00000000      19.91605516      19.91605516       0.00036800       0.00000450       0.00000450       0.00000000      -0.00000001      -0.00000001
Na       5.69030148      19.91605516      19.91605516      -0.00005559      -0.00000494      -0.00000494       0.00000000      -0.00000001      -0.00000001
Na      11.38060295      19.91605516      19.91605516       0.00001246       0.00000241       0.00000241      -0.00000000      -0.00000001      -0.00000001
Na      17.07090443      19.91605516      19.91605516      -0.00005575       0.00000734       0.00000734       0.00000000      -0.00000001      -0.00000001
Na       2.84515074       0.00000000       2.84515074      -0.00036647      -0.00000000       0.00039833       0.00000000       0.00000000       0.00000000
Na       8.53545221       0.00000000       2.84515074       0.00005550      -0.00000000      -0.00001526      -0.00000001       0.00000000       0.00000000
Na      14.22575369       0.00000000       2.84515074       0.00004563      -0.00000000       0.00001249      -0.00000000       0.00000000       0.00000000
Na      19.91605516       0.00000000       2.84515074      -0.00035834      -0.00000000      -0.00038864      -0.00000001       0.00000000       0.00000000
Na       2.84515074       5.69030148       2.84515074      -0.00001057       0.00000853      -0.00007841       0.00000000       0.00000000       0.00000000
Na       8.53545221       5.69030148       2.84515074      -0.00000508       0.00000054      -0.00000285      -0.00000001       0.00000000       0.00000000
Na      14.22575369       5.69030148       2.84515074      -0.00001325      -0.00000196      -0.00000609      -0.00000000       0.00000000       0.00000000
Na      19.91605516       5.69030148       2.84515074      -0.00000282      -0.00000634       0.00007377      -0.00000001       0.00000000       0.00000000
Na       2.84515074      11.38060295       2.84515074       0.00000450      -0.00000000      -0.00001242       0.00000000      -0.00000000       0.00000000
Na       8.53545221      11.38060295       2.84515074      -0.00000420      -0.00000000      -0.00000430      -0.00000001      -0.00000000       0.00000000
Na      14.22575369      11.38060295       2.84515074      -0.00001240      -0.00000000      -0.00000714      -0.00000000      -0.00000000       0.00000000
Na      19.91605516      11.38060295       2.84515074       0.00001275      -0.00000000      -0.00000252      -0.00000001      -0.00000000       0.00000000
Na       2.84515074      17.07090443       2.84515074      -0.00001057      -0.00000854      -0.00007841       0.00000000       0.00000000       0.00000000
Na       8.53545221      17.07090443       2.84515074      -0.00000508      -0.00000055      -0.00000285      -0.00000001       0.00000000       0.00000000
Na      14.22575369      17.07090443       2.84515074      -0.00001325       0.00000195      -0.00000609      -0.00000000       0.00000000       0.00000000
Na      19.91605516      17.07090443       2.84515074      -0.00000282       0.00000633       0.00007377      -0.00000001       0.00000000       0.00000000
Na       2.84515074       0.00000000       8.53545221       0.00000830      -0.00000000      -0.00001156       0.00000000       0.00000000      -0.00000001
Na       8.53545221       0.00000000       8.53545221      -0.00000669      -0.00000000       0.00000748      -0.00000001       0.00000000      -0.00000001
Na      14.22575369       0.00000000       8.53545221      -0.00001582      -0.00000000      -0.00000242      -0.00000000       0.00000000      -0.00000001
Na      19.91605516       0.00000000       8.53545221       0.00001355      -0.00000000       0.00001818      -0.00000001       0.00000000      -0.00000001
Na       2.84515074       5.69030148       8.53545221      -0.00000151      -0.00000855       0.00000242       0.00000000       0.00000000      -0.00000001
Na       8.53545221       5.69030148       8.53545221      -0.00000122      -0.00000263       0.00000146      -0.00000001       0.00000000      -0.00000001
Na      14.22575369       5.69030148       8.53545221      -0.00000861       0.00000361       0.00000232      -0.00000000       0.00000000      -0.00000001
Na      19.91605516       5.69030148       8.53545221       0.00000962       0.00001119      -0.00000328      -0.00000001       0.00000000      -0.00000001
Na       2.84515074      11.38060295       8.53545221      -0.00000633      -0.00000000       0.00000186       0.00000000      -0.00000000      -0.00000001
Na       8.53545221      11.38060295       8.53545221       0.00000368      -0.00000000      -0.00000538      -0.00000001      -0.00000000      -0.00000001
Na      14.22575369      11.38060295       8.53545221      -0.00000753      -0.00000000       0.00000674      -0.00000000      -0.00000000      -0.00000001
Na      19.91605516      11.38060295       8.53545221       0.00000937      -0.00000000       0.00000300      -0.00000001      -0.00000000      -0.00000001
Na       2.84515074      17.07090443       8.53545221      -0.00000151       0.00000854       0.00000242       0.00000000       0.00000000      -0.00000001
Na       8.53545221      17.07090443       8.53545221      -0.00000122       0.00000262       0.00000146      -0.00000001       0.00000000      -0.00000001
Na      14.22575369      17.07090443       8.53545221      -0.00000861      -0.00000362       0.00000232      -0.00000000       0.00000000      -0.00000001
Na      19.91605516      17.07090443       8.53545221       0.00000962      -0.00001120      -0.00000328      -0.00000001       0.00000000      -0.00000001
Na       2.84515074       0.00000000      14.22575369       0.00000830      -0.00000000       0.00001157       0.00000000       0.00000000      -0.00000000
Na       8.53545221       0.00000000      14.22575369      -0.00000669      -0.00000000      -0.00000747      -0.00000001       0.00000000      -0.00000000
Na      14.22575369       0.00000000      14.22575369      -0.00001582      -0.00000000       0.00000243      -0.00000000       0.00000000      -0.00000000
Na      19.91605516       0.00000000      14.22575369       0.00001355      -0.00000000      -0.00001818      -0.00000001       0.00000000      -0.00000000
Na       2.84515074       5.69030148      14.22575369      -0.00000151      -0.00000855      -0.00000242       0.00000000       0.00000000      -0.00000000
Na       8.53545221       5.69030148      14.22575369      -0.00000122      -0.00000263      -0.00000146      -0.00000001       0.00000000      -0.00000000
Na      14.22575369       5.69030148      14.22575369      -0.00000861       0.00000361      -0.00000231      -0.00000000       0.00000000      -0.00000000
Na      19.91605516       5.69030148      14.22575369       0.00000962       0.00001119       0.00000329      -0.00000001       0.00000000      -0.00000000
Na       2.84515074      11.38060295      14.22575369      -0.00000633      -0.00000000      -0.00000186       0.00000000      -0.00000000      -0.00000000
Na       8.53545221      11.38060295      14.22575369       0.00000368      -0.00000000       0.00000539      -0.00000001      -0.00000000      -0.00000000
Na      14.22575369      11.38060295      14.22575369      -0.00000753      -0.00000000      -0.00000674      -0.00000000      -0.00000000      -0.00000000
Na      19.91605516      11.38060295      14.22575369       0.00000937      -0.00000000      -0.00000299      -0.00000001      -0.00000000      -0.00000000
Na       2.84515074      17.07090443      14.22575369      -0.00000151       0.00000854      -0.00000242       0.00000000       0.00000000      -0.00000000
Na       8.53545221      17.07090443      14.22575369      -0.00000122       0.00000262      -0.00000146      -0.00000001       0.00000000      -0.00000000
Na      14.22575369      17.07090443      14.22575369      -0.00000861      -0.00000362      -0.00000231      -0.00000000       0.00000000      -0.00000000
Na      19.91605516      17.07090443      14.22575369       0.00000962      -0.00001120       0.00000329      -0.00000001       0.00000000      -0.00000000
Na       2.84515074       0.00000000      19.91605516      -0.00036647      -0.00000000      -0.00039833       0.00000000       0.00000000      -0.00000001
Na       8.53545221       0.00000000      19.91605516       0.00005550      -0.00000000       0.00001526      -0.00000001       0.00000000      -0.00000001
Na      14.22575369       0.00000000      19.91605516       0.00004563      -0.00000000      -0.00001248      -0.00000000       0.00000000      -0.00000001
Na      19.91605516       0.00000000      19.91605516      -0.00035834      -0.00000000       0.00038865      -0.00000001       0.00000000      -0.00000001
Na       2.84515074       5.69030148      19.91605516      -0.00001057       0.00000853       0.00007841       0.00000000       0.00000000      -0.00000001
Na       8.53545221       5.69030148      19.91605516      -0.00000508       0.00000054       0.00000286      -0.00000001       0.00000000      -0.00000001
Na      14.22575369       5.69030148      19.91605516      -0.00001325      -0.00000196       0.00000609      -0.00000000       0.00000000      -0.00000001
Na      19.91605516       5.69030148      19.91605516      -0.00000282      -0.00000634      -0.00007376      -0.00000001       0.00000000      -0.00000001
Na       2.84515074      11.38060295      19.91605516       0.00000450      -0.00000000       0.00001243       0.00000000      -0.00000000      -0.00000001
Na       8.53545221      11.38060295      19.91605516      -0.00000420      -0.00000000       0.00000431      -0.00000001      -0.00000000      -0.00000001
Na      14.22575369      11.38060295      19.91605516      -0.00001240      -0.00000000       0.00000714      -0.00000000      -0.00000000      -0.00000001
Na      19.91605516      11.38060295      19.91605516       0.00001275      -0.00000000       0.00000253      -0.00000001      -0.00000000      -0.00000001
Na       2.84515074      17.07090443      19.91605516      -0.00001057      -0.00000854       0.00007841       0.00000000       0.00000000      -0.00000001
Na       8.53545221      17.07090443      19.91605516      -0.00000508      -0.00000055       0.00000286      -0.00000001       0.00000000      -0.00000001
Na      14.22575369      17.07090443      19.91605516      -0.00001325       0.00000195       0.00000609      -0.00000000       0.00000000      -0.00000001
Na      19.91605516      17.07090443      19.91605516      -0.00000282       0.00000633      -0.00007376      -0.00000001       0.00000000      -0.00000001
Na       2.84515074       2.84515074       0.00000000      -0.00036647       0.00039833      -0.00000000       0.00000000       0.00000000       0.00000000
Na       8.53545221       2.84515074       0.00000000       0.00005550      -0.00001526      -0.00000000      -0.00000001       0.00000000       0.00000000
Na      14.22575369       2.84515074       0.00000000       0.00004563       0.00001249      -0.00000000      -0.00000000       0.00000000       0.00000000
Na      19.91605516       2.84515074       0.00000000      -0.00035834      -0.00038864      -0.00000000      -0.00000001       0.00000000       0.00000000
Na       2.84515074       8.53545221       0.00000000       0.00000830      -0.00001156      -0.00000000       0.00000000      -0.00000001       0.00000000
Na       8.53545221       8.53545221       0.00000000      -0.00000669       0.00000748      -0.00000000      -0.00000001      -0.00000001       0.00000000
Na      14.22575369       8.53545221       0.00000000      -0.00001582      -0.00000242      -0.00000000      -0.00000000      -0.00000001       0.00000000
Na      19.91605516       8.53545221       0.00000000       0.00001355       0.00001818      -0.00000000      -0.00000001      -0.00000001       0.00000000
Na       2.84515074      14.22575369       0.00000000       0.00000830       0.00001157      -0.00000000       0.00000000      -0.00000000       0.00000000
Na       8.53545221      14.22575369       0.00000000      -0.00000669      -0.00000747      -0.00000000      -0.00000001      -0.00000000       0.00000000
Na      14.22575369      14.22575369       0.00000000      -0.00001582       0.00000243      -0.00000000      -0.00000000      -0.00000000       0.00000000
Na      19.91605516      14.22575369       0.00000000       0.00001355      -0.00001818      -0.00000000      -0.00000001      -0.00000000       0.00000000
Na       2.84515074      19.91605516       0.00000000      -0.00036647      -0.00039833      -0.00000000       0.00000000      -0.00000001       0.00000000
Na       8.53545221      19.91605516       0.00000000       0.00005550       0.00001526      -0.00000000      -0.00000001      -0.00000001       0.00000000
Na      14.22575369      19.91605516       0.00000000       0.00004563      -0.00001248      -0.00000000      -0.00000000      -0.00000001       0.00000000
Na      19.91605516      19.91605516       0.00000000      -0.00035834       0.00038865      -0.00000000      -0.00000001      -0.00000001       0.00000000
Na       2.84515074       2.84515074       5.69030148      -0.00001057      -0.00007841       0.00000853       0.00000000       0.00000000       0.00000000
Na       8.53545221       2.84515074       5.69030148      -0.00000508      -0.00000285       0.00000054      -0.00000001       0.00000000       0.00000000
Na      14.22575369       2.84515074       5.69030148      -0.00001325      -0.00000609      -0.00000196      -0.00000000       0.00000000       0.00000000
Na      19.91605516       2.84515074       5.69030148      -0.00000282       0.00007377      -0.00000634      -0.00000001       0.00000000       0.00000000
Na       2.84515074       8.53545221       5.69030148      -0.00000151       0.00000242      -0.00000855       0.00000000      -0.00000001       0.00000000
Na       8.53545221       8.53545221       5.69030148      -0.00000122       0.00000146      -0.00000263      -0.00000001      -0.00000001       0.00000000
Na      14.22575369       8.53545221       5.69030148      -0.00000861       0.00000232       0.00000361      -0.00000000      -0.00000001       0.00000000
Na      19.91605516       8.53545221       5.69030148       0.00000962      -0.00000328       0.00001119      -0.00000001      -0.00000001       0.00000000
Na       2.84515074      14.22575369       5.69030148      -0.00000151      -0.00000242      -0.00000855       0.00000000      -0.00000000       0.00000000
Na       8.53545221      14.22575369       5.69030148      -0.00000122      -0.00000146      -0.00000263      -0.00000001      -0.00000000       0.00000000
Na      14.22575369      14.22575369       5.69030148      -0.00000861      -0.00000231       0.00000361      -0.00000000      -0.00000000       0.00000000
Na      19.91605516      14.22575369       5.69030148       0.00000962       0.00000329       0.00001119      -0.00000001      -0.00000000       0.00000000
Na       2.84515074      19.91605516       5.69030148      -0.00001057       0.00007841       0.00000853       0.00000000      -0.00000001       0.00000000
Na       8.53545221      19.91605516       5.69030148      -0.00000508       0.00000286       0.00000054      -0.00000001      -0.00000001       0.00000000
Na      14.22575369      19.91605516       5.69030148      -0.00001325       0.00000609      -0.00000196      -0.00000000      -0.00000001       0.00000000
Na      19.91605516      19.91605516       5.69030148      -0.00000282      -0.00007376      -0.00000634      -0.00000001      -0.00000001       0.00000000
Na       2.84515074       2.84515074      11.38060295       0.00000450      -0.00001242      -0.00000000       0.00000000       0.00000000      -0.00000000
Na       8.53545221       2.84515074      11.38060295      -0.00000420      -0.00000430      -0.00000000      -0.00000001       0.00000000      -0.00000000
Na      14.22575369       2.84515074      11.38060295      -0.00001240      -0.00000714      -0.00000000      -0.00000000       0.00000000      -0.00000000
Na      19.91605516       2.84515074      11.38060295       0.00001275      -0.00000252      -0.00000000      -0.00000001       0.00000000      -0.00000000
Na       2.84515074       8.53545221      11.38060295      -0.00000633       0.00000186      -0.00000000       0.00000000      -0.00000001      -0.00000000
Na       8.53545221       8.53545221      11.38060295       0.00000368      -0.00000538      -0.00000000      -0.00000001      -0.00000001      -0.00000000
Na      14.22575369       8.53545221      11.38060295      -0.00000753       0.00000674      -0.00000000      -0.00000000      -0.00000001      -0.00000000
Na      19.91605516       8.53545221      11.38060295       0.00000937       0.00000300      -0.00000000      -0.00000001      -0.00000001      -0.00000000
Na       2.84515074      14.22575369      11.38060295      -0.00000633      -0.00000186      -0.00000000       0.00000000      -0.00000000      -0.00000000
Na       8.53545221      14.22575369      11.38060295       0.00000368       0.00000539      -0.00000000      -0.00000001      -0.00000000      -0.00000000
Na      14.22575369      14.22575369      11.38060295      -0.00000753      -0.00000674      -0.00000000      -0.00000000      -0.00000000      -0.00000000
Na      19.91605516      14.22575369      11.38060295       0.00000937      -0.00000299      -0.00000000      -0.00000001      -0.00000000      -0.00000000
Na       2.84515074      19.91605516      11.38060295       0.00000450       0.00001243      -0.00000000       0.00000000      -0.00000001      -0.00000000
Na       8.53545221      19.91605516      11.38060295      -0.00000420       0.00000431      -0.00000000      -0.00000001      -0.00000001      -0.00000000
Na      14.22575369      19.91605516      11.38060295      -0.00001240       0.00000714      -0.00000000      -0.00000000      -0.00000001      -0.00000000
Na      19.91605516      19.91605516      11.38060295       0.00001275       0.00000253      -0.00000000      -0.00000001      -0.00000001      -0.00000000
Na       2.84515074       2.84515074      17.07090443      -0.00001057      -0.00007841      -0.00000854       0.00000000       0.00000000       0.00000000
Na       8.53545221       2.84515074      17.07090443      -0.00000508      -0.00000285      -0.00000055      -0.00000001       0.00000000       0.00000000
Na      14.22575369       2.84515074      17.07090443      -0.00001325      -0.00000609       0.00000195      -0.00000000       0.00000000       0.00000000
Na      19.91605516       2.84515074      17.07090443      -0.00000282       0.00007377       0.00000633      -0.00000001       0.00000000       0.00000000
Na       2.84515074       8.53545221      17.07090443      -0.00000151       0.00000242       0.00000854       0.00000000      -0.00000001       0.00000000
Na       8.53545221       8.53545221      17.07090443      -0.00000122       0.00000146       0.00000262      -0.00000001      -0.00000001       0.00000000
Na      14.22575369       8.53545221      17.07090443      -0.00000861       0.00000232      -0.00000362      -0.00000000      -0.00000001       0.00000000
Na      19.91605516       8.53545221      17.07090443       0.00000962      -0.00000328      -0.00001120      -0.00000001      -0.00000001       0.00000000
Na       2.84515074      14.22575369      17.07090443      -0.00000151      -0.00000242       0.00000854       0.00000000      -0.00000000       0.00000000
Na       8.53545221      14.22575369      17.07090443      -0.00000122      -0.00000146       0.00000262      -0.00000001      -0.00000000       0.00000000
Na      14.22575369      14.22575369      17.07090443      -0.00000861      -0.00000231      -0.00000362      -0.00000000      -0.00000000       0.00000000
Na      19.91605516      14.22575369      17.07090443       0.00000962       0.00000329      -0.00001120      -0.00000001      -0.00000000       0.00000000
Na       2.84515074      19.91605516      17.07090443      -0.00001057       0.00007841      -0.00000854       0.00000000      -0.00000001       0.00000000
Na       8.53545221      19.91605516      17.07090443      -0.00000508       0.00000286      -0.00000055      -0.00000001      -0.00000001       0.00000000
Na      14.22575369      19.91605516      17.07090443      -0.00001325       0.00000609       0.00000195      -0.00000000      -0.00000001       0.00000000
Na      19.91605516      19.91605516      17.07090443      -0.00000282      -0.00007376       0.00000633      -0.00000001      -0.00000001       0.00000000
Cl       2.84515074       2.84515074       2.84515074       0.00011232       0.00007645       0.00007645       0.00000000       0.00000000       0.00000000
Cl       8.53545221       2.84515074       2.84515074       0.00002350      -0.00003628      -0.00003628      -0.00000001       0.00000000       0.00000000
Cl      14.22575369       2.84515074       2.84515074      -0.00003377       0.00000280       0.00000280      -0.00000000       0.00000000       0.00000000
Cl      19.91605516       2.84515074       2.84515074       0.00015338      -0.00010741      -0.00010741      -0.00000001       0.00000000       0.00000000
Cl       2.84515074       8.53545221       2.84515074      -0.00002022       0.00003333      -0.00003727       0.00000000      -0.00000001       0.00000000
Cl       8.53545221       8.53545221       2.84515074       0.00003203       0.00000889      -0.00001116      -0.00000001      -0.00000001       0.00000000
Cl      14.22575369       8.53545221       2.84515074      -0.00002501       0.00002609      -0.00002944      -0.00000000      -0.00000001       0.00000000
Cl      19.91605516       8.53545221       2.84515074       0.00001540      -0.00001191      -0.00001862      -0.00000001      -0.00000001       0.00000000
Cl       2.84515074      14.22575369       2.84515074      -0.00002022      -0.00003333      -0.00003727       0.00000000      -0.00000000       0.00000000
Cl       8.53545221      14.22575369       2.84515074       0.00003203      -0.00000888      -0.00001116      -0.00000001      -0.00000000       0.00000000
Cl      14.22575369      14.22575369       2.84515074      -0.00002501      -0.00002608      -0.00002944      -0.00000000      -0.00000000       0.00000000
Cl      19.91605516      14.22575369       2.84515074       0.00001540       0.00001192      -0.00001862      -0.00000001      -0.00000000       0.00000000
Cl       2.84515074      19.91605516       2.84515074       0.00011232      -0.00007644       0.00007645       0.00000000      -0.00000001       0.00000000
Cl       8.53545221      19.91605516       2.84515074       0.00002350       0.00003629      -0.00003628      -0.00000001      -0.00000001       0.00000000
Cl      14.22575369      19.91605516       2.84515074      -0.00003377      -0.00000280       0.00000280      -0.00000000      -0.00000001       0.00000000
Cl      19.91605516      19.91605516       2.84515074       0.00015338       0.00010741      -0.00010741      -0.00000001      -0.00000001       0.00000000
Cl       2.84515074       2.84515074       8.53545221      -0.00002022      -0.00003727       0.00003333       0.00000000       0.00000000      -0.00000001
Cl       8.53545221       2.84515074       8.53545221       0.00003203      -0.00001116       0.00000889      -0.00000001       0.00000000      -0.00000001
Cl      14.22575369       2.84515074       8.53545221      -0.00002501      -0.00002944       0.00002609      -0.00000000       0.00000000      -0.00000001
Cl      19.91605516       2.84515074       8.53545221       0.00001540      -0.00001862      -0.00001191      -0.00000001       0.00000000      -0.00000001
Cl       2.84515074       8.53545221       8.53545221      -0.00006675       0.00001440       0.00001440       0.00000000      -0.00000001      -0.00000001
Cl       8.53545221       8.53545221       8.53545221       0.00005584      -0.00001589      -0.00001589      -0.00000001      -0.00000001      -0.00000001
Cl      14.22575369       8.53545221       8.53545221      -0.00002845       0.00002677       0.00002677      -0.00000000      -0.00000001      -0.00000001
Cl      19.91605516       8.53545221       8.53545221       0.00001861       0.00000251       0.00000251      -0.00000001      -0.00000001      -0.00000001
Cl       2.84515074      14.22575369       8.53545221      -0.00006675      -0.00001439       0.00001440       0.00000000      -0.00000000      -0.00000001
Cl       8.53545221      14.22575369       8.53545221       0.00005584       0.00001590      -0.00001589      -0.00000001      -0.00000000      -0.00000001
Cl      14.22575369      14.22575369       8.53545221      -0.00002845      -0.00002676       0.00002677      -0.00000000      -0.00000000      -0.00000001
Cl      19.91605516      14.22575369       8.53545221       0.00001861      -0.00000251       0.00000251      -0.00000001      -0.00000000      -0.00000001
Cl       2.84515074      19.91605516       8.53545221      -0.00002022       0.00003728       0.00003333       0.00000000      -0.00000001      -0.00000001
Cl       8.53545221      19.91605516       8.53545221       0.00003203       0.00001116       0.00000889      -0.00000001      -0.00000001      -0.00000001
Cl      14.22575369      19.91605516       8.53545221      -0.00002501       0.00002945       0.00002609      -0.00000000      -0.00000001      -0.00000001
Cl      19.91605516      19.91605516       8.53545221       0.00001540       0.00001863      -0.00001191      -0.00000001      -0.00000001      -0.00000001
Cl       2.84515074       2.84515074      14.22575369      -0.00002022      -0.00003727      -0.00003333       0.00000000       0.00000000      -0.00000000
Cl       8.53545221       2.84515074      14.22575369       0.00003203      -0.00001116      -0.00000888      -0.00000001       0.00000000      -0.00000000
Cl      14.22575369       2.84515074      14.22575369      -0.00002501      -0.00002944      -0.00002608      -0.00000000       0.00000000      -0.00000000
Cl      19.91605516       2.84515074      14.22575369       0.00001540      -0.00001862       0.00001192      -0.00000001       0.00000000      -0.00000000
Cl       2.84515074       8.53545221      14.22575369      -0.00006675       0.00001440      -0.00001439       0.00000000      -0.00000001      -0.00000000
Cl       8.53545221       8.53545221      14.22575369       0.00005584      -0.00001589       0.00001590      -0.00000001      -0.00000001      -0.00000000
Cl      14.22575369       8.53545221      14.22575369      -0.00002845       0.00002677      -0.00002676      -0.00000000      -0.00000001      -0.00000000
Cl      19.91605516       8.53545221      14.22575369       0.00001861       0.00000251      -0.00000251      -0.00000001      -0.00000001      -0.00000000
Cl       2.84515074      14.22575369      14.22575369      -0.00006675      -0.00001439      -0.00001439       0.00000000      -0.00000000      -0.00000000
Cl       8.53545221      14.22575369      14.22575369       0.00005584       0.00001590       0.00001590      -0.00000001      -0.00000000      -0.00000000
Cl      14.22575369      14.22575369      14.22575369      -0.00002845      -0.00002676      -0.00002676      -0.00000000      -0.00000000      -0.00000000
Cl      19.91605516      14.22575369      14.22575369       0.00001861      -0.00000251      -0.00000251      -0.00000001      -0.00000000      -0.00000000
Cl       2.84515074      19.91605516      14.22575369      -0.00002022       0.00003728      -0.00003333       0.00000000      -0.00000001      -0.00000000
Cl       8.53545221      19.91605516      14.22575369       0.00003203       0.00001116      -0.00000888      -0.00000001      -0.00000001      -0.00000000
Cl      14.22575369      19.91605516      14.22575369      -0.00002501       0.00002945      -0.00002608      -0.00000000      -0.00000001      -0.00000000
Cl      19.91605516      19.91605516      14.22575369       0.00001540       0.00001863       0.00001192      -0.00000001      -0.00000001      -0.00000000
Cl       2.84515074       2.84515074      19.91605516       0.00011232       0.00007645      -0.00007644       0.00000000       0.00000000      -0.00000001
Cl       8.53545221       2.84515074      19.91605516       0.00002350      -0.00003628       0.00003629      -0.00000001       0.00000000      -0.00000001
Cl      14.22575369       2.84515074      19.91605516      -0.00003377       0.00000280      -0.00000280      -0.00000000       0.00000000      -0.00000001
Cl      19.91605516       2.84515074      19.91605516       0.00015338      -0.00010741       0.00010741      -0.00000001       0.00000000      -0.00000001
Cl       2.84515074       8.53545221      19.91605516      -0.00002022       0.00003333       0.00003728       0.00000000      -0.00000001      -0.00000001
Cl       8.53545221       8.53545221      19.91605516       0.00003203       0.00000889       0.00001116      -0.00000001      -0.00000001      -0.00000001
Cl      14.22575369       8.53545221      19.91605516      -0.00002501       0.00002609       0.00002945      -0.00000000      -0.00000001      -0.00000001
Cl      19.91605516       8.53545221      19.91605516       0.00001540      -0.00001191       0.00001863      -0.00000001      -0.00000001      -0.00000001
Cl       2.84515074      14.22575369      19.91605516      -0.00002022      -0.00003333       0.00003728       0.00000000      -0.00000000      -0.00000001
Cl       8.53545221      14.22575369      19.91605516       0.00003203      -0.00000888       0.00001116      -0.00000001      -0.00000000      -0.00000001
Cl      14.22575369      14.22575369      19.91605516      -0.00002501      -0.00002608       0.00002945      -0.00000000      -0.00000000      -0.00000001
Cl      19.91605516      14.22575369      19.91605516       0.00001540       0.00001192       0.00001863      -0.00000001      -0.00000000      -0.00000001
Cl       2.84515074      19.91605516      19.91605516       0.00011232      -0.00007644      -0.00007644       0.00000000      -0.00000001      -0.00000001
Cl       8.53545221      19.91605516      19.91605516       0.00002350       0.00003629       0.00003629      -0.00000001      -0.00000001      -0.00000001
Cl      14.22575369      19.91605516      19.91605516      -0.00003377      -0.00000280      -0.00000280      -0.00000000      -0.00000001      -0.00000001
Cl      19.91605516      19.91605516      19.91605516       0.00015338       0.00010741       0.00010741      -0.00000001      -0.00000001      -0.00000001
Cl       2.84515074       0.00000000       0.00000000       0.00983129      -0.00000000      -0.00000000       0.00000000       0.00000000       0.00000000
Cl       8.53545221       0.00000000       0.00000000       0.00002077      -0.00000000      -0.00000000      -0.00000001       0.00000000       0.00000000
Cl      14.22575369       0.00000000       0.00000000      -0.00001294      -0.00000000      -0.00000000      -0.00000000       0.00000000       0.00000000
Cl      19.91605516       0.00000000       0.00000000       0.00947299      -0.00000000      -0.00000000      -0.00000001       0.00000000       0.00000000
Cl       2.84515074       5.69030148       0.00000000       0.00005007       0.00019404      -0.00000000       0.00000000       0.00000000       0.00000000
Cl       8.53545221       5.69030148       0.00000000       0.00000002      -0.00004360      -0.00000000      -0.00000001       0.00000000       0.00000000
Cl      14.22575369       5.69030148       0.00000000      -0.00002518       0.00005330      -0.00000000      -0.00000000       0.00000000       0.00000000
Cl      19.91605516       5.69030148       0.00000000       0.00008619      -0.00019043      -0.00000000      -0.00000001       0.00000000       0.00000000
Cl       2.84515074      11.38060295       0.00000000      -0.00000427      -0.00000000      -0.00000000       0.00000000      -0.00000000       0.00000000
Cl       8.53545221      11.38060295       0.00000000       0.00003050      -0.00000000      -0.00000000      -0.00000001      -0.00000000       0.00000000
Cl      14.22575369      11.38060295       0.00000000      -0.00004572      -0.00000000      -0.00000000      -0.00000000      -0.00000000       0.00000000
Cl      19.91605516      11.38060295       0.00000000       0.00000199      -0.00000000      -0.00000000      -0.00000001      -0.00000000       0.00000000
Cl       2.84515074      17.07090443       0.00000000       0.00005007      -0.00019405      -0.00000000       0.00000000       0.00000000       0.00000000
Cl       8.53545221      17.07090443       0.00000000       0.00000002       0.00004359      -0.00000000      -0.00000001       0.00000000       0.00000000
Cl      14.22575369      17.07090443       0.00000000      -0.00002518      -0.00005331      -0.00000000      -0.00000000       0.00000000       0.00000000
Cl      19.91605516      17.07090443       0.00000000       0.00008619       0.00019042      -0.00000000      -0.00000001       0.00000000       0.00000000
Cl       2.84515074       0.00000000       5.69030148       0.00005007      -0.00000000       0.00019404       0.00000000       0.00000000       0.00000000
Cl       8.53545221       0.00000000       5.69030148       0.00000002      -0.00000000      -0.00004360      -0.00000001       0.00000000       0.00000000
Cl      14.22575369       0.00000000       5.69030148      -0.00002518      -0.00000000       0.00005330      -0.00000000       0.00000000       0.00000000
Cl      19.91605516       0.00000000       5.69030148       0.00008619      -0.00000000      -0.00019043      -0.00000001       0.00000000       0.00000000
Cl       2.84515074       5.69030148       5.69030148      -0.00002787       0.00000304       0.00000304       0.00000000       0.00000000       0.00000000
Cl       8.53545221       5.69030148       5.69030148       0.00003076       0.00000371       0.00000371      -0.00000001       0.00000000       0.00000000
Cl      14.22575369       5.69030148       5.69030148      -0.00001829       0.00000954       0.00000954      -0.00000000       0.00000000       0.00000000
Cl      19.91605516       5.69030148       5.69030148       0.00001543      -0.00000063      -0.00000063      -0.00000001       0.00000000       0.00000000
Cl       2.84515074      11.38060295       5.69030148      -0.00002928      -0.00000000       0.00001250       0.00000000      -0.00000000       0.00000000
Cl       8.53545221      11.38060295       5.69030148       0.00003322      -0.00000000      -0.00001281      -0.00000001      -0.00000000       0.00000000
Cl      14.22575369      11.38060295       5.69030148      -0.00003334      -0.00000000       0.00003342      -0.00000000      -0.00000000       0.00000000
Cl      19.91605516      11.38060295       5.69030148       0.00002722      -0.00000000       0.00003181      -0.00000001      -0.00000000       0.00000000
Cl       2.84515074      17.07090443       5.69030148      -0.00002787      -0.00000305       0.00000304       0.00000000       0.00000000       0.00000000
Cl       8.53545221      17.07090443       5.69030148       0.00003076      -0.00000372       0.00000371      -0.00000001       0.00000000       0.00000000
Cl      14.22575369      17.07090443       5.69030148      -0.00001829      -0.00000955       0.00000955      -0.00000000       0.00000000       0.00000000
Cl      19.91605516      17.07090443       5.69030148       0.00001543       0.00000062      -0.00000063      -0.00000001       0.00000000       0.00000000
Cl       2.84515074       0.00000000      11.38060295      -0.00000427      -0.00000000      -0.00000000       0.00000000       0.00000000      -0.00000000
Cl       8.53545221       0.00000000      11.38060295       0.00003050      -0.00000000      -0.00000000      -0.00000001       0.00000000      -0.00000000
Cl      14.22575369       0.00000000      11.38060295      -0.00004572      -0.00000000      -0.00000000      -0.00000000       0.00000000      -0.00000000
Cl      19.91605516       0.00000000      11.38060295       0.00000199      -0.00000000      -0.00000000      -0.00000001       0.00000000      -0.00000000
Cl       2.84515074       5.69030148      11.38060295      -0.00002928       0.00001250      -0.00000000       0.00000000       0.00000000      -0.00000000
Cl       8.53545221       5.69030148      11.38060295       0.00003322      -0.00001281      -0.00000000      -0.00000001       0.00000000      -0.00000000
Cl      14.22575369       5.69030148      11.38060295      -0.00003334       0.00003342      -0.00000000      -0.00000000       0.00000000      -0.00000000
Cl      19.91605516       5.69030148      11.38060295       0.00002722       0.00003181      -0.00000000      -0.00000001       0.00000000      -0.00000000
Cl       2.84515074      11.38060295      11.38060295      -0.00004974      -0.00000000      -0.00000000       0.00000000      -0.00000000      -0.00000000
Cl       8.53545221      11.38060295      11.38060295       0.00010711      -0.00000000      -0.00000000      -0.00000001      -0.00000000      -0.00000000
Cl      14.22575369      11.38060295      11.38060295       0.00000372      -0.00000000      -0.00000000      -0.00000000      -0.00000000      -0.00000000
Cl      19.91605516      11.38060295      11.38060295       0.00002686      -0.00000000      -0.00000000      -0.00000001      -0.00000000      -0.00000000
Cl       2.84515074      17.07090443      11.38060295      -0.00002928      -0.00001251      -0.00000000       0.00000000       0.00000000      -0.00000000
Cl       8.53545221      17.07090443      11.38060295       0.00003322       0.00001280      -0.00000000      -0.00000001       0.00000000      -0.00000000
Cl      14.22575369      17.07090443      11.38060295      -0.00003334      -0.00003343      -0.00000000      -0.00000000       0.00000000      -0.00000000
Cl      19.91605516      17.07090443      11.38060295       0.00002722      -0.00003182      -0.00000000      -0.00000001       0.00000000      -0.00000000
Cl       2.84515074       0.00000000      17.07090443       0.00005007      -0.00000000      -0.00019405       0.00000000       0.00000000       0.00000000
Cl       8.53545221       0.00000000      17.07090443       0.00000002      -0.00000000       0.00004359      -0.00000001       0.00000000       0.00000000
Cl      14.22575369       0.00000000      17.07090443      -0.00002518      -0.00000000      -0.00005331      -0.00000000       0.00000000       0.00000000
Cl      19.91605516       0.00000000      17.07090443       0.00008619      -0.00000000       0.00019042      -0.00000001       0.00000000       0.00000000
Cl       2.84515074       5.69030148      17.07090443      -0.00002787       0.00000304      -0.00000305       0.00000000       0.00000000       0.00000000
Cl       8.53545221       5.69030148      17.07090443       0.00003076       0.00000371      -0.00000372      -0.00000001       0.00000000       0.00000000
Cl      14.22575369       5.69030148      17.07090443      -0.00001829       0.00000955      -0.00000955      -0.00000000       0.00000000       0.00000000
Cl      19.91605516       5.69030148      17.07090443       0.00001543      -0.00000063       0.00000062      -0.00000001       0.00000000       0.00000000
Cl       2.84515074      11.38060295      17.07090443      -0.00002928      -0.00000000      -0.00001251       0.00000000      -0.00000000       0.00000000
Cl       8.53545221      11.38060295      17.07090443       0.00003322      -0.00000000       0.00001280      -0.00000001      -0.00000000       0.00000000
Cl      14.22575369      11.38060295      17.07090443      -0.00003334      -0.00000000      -0.00003343      -0.00000000      -0.00000000       0.00000000
Cl      19.91605516      11.38060295      17.07090443       0.00002722      -0.00000000      -0.00003182      -0.00000001      -0.00000000       0.00000000
Cl       2.84515074      17.07090443      17.07090443      -0.00002787      -0.00000305      -0.00000305       0.00000000       0.00000000       0.00000000
Cl       8.53545221      17.07090443      17.07090443       0.00003076      -0.00000372      -0.00000372      -0.00000001       0.00000000       0.00000000
Cl      14.22575369      17.07090443      17.07090443      -0.00001829      -0.00000955      -0.00000955      -0.00000000       0.00000000       0.00000000
Cl      19.91605516      17.07090443      17.07090443       0.00001543       0.00000062       0.00000062      -0.00000001       0.00000000       0.00000000
Cl       0.00000000       2.84515074       0.00000000      -0.00104980      -0.00003763      -0.00000000       0.00000000       0.00000000       0.00000000
Cl       5.69030148       2.84515074       0.00000000      -0.00001050      -0.00018325      -0.00000000       0.00000000       0.00000000       0.00000000
Cl      11.38060295       2.84515074       0.00000000      -0.00004506      -0.00002503      -0.00000000      -0.00000000       0.00000000       0.00000000
Cl      17.07090443       2.84515074       0.00000000       0.00000257       0.00015639      -0.00000000       0.00000000       0.00000000       0.00000000
Cl       0.00000000       8.53545221       0.00000000      -0.00000182       0.00000437      -0.00000000       0.00000000      -0.00000001       0.00000000
Cl       5.69030148       8.53545221       0.00000000      -0.00001977       0.00000920      -0.00000000       0.00000000      -0.00000001       0.00000000
Cl      11.38060295       8.53545221       0.00000000       0.00000924       0.00002683      -0.00000000      -0.00000000      -0.00000001       0.00000000
Cl      17.07090443       8.53545221       0.00000000       0.00000078       0.00001246      -0.00000000       0.00000000      -0.00000001       0.00000000
Cl       0.00000000      14.22575369       0.00000000      -0.00000182      -0.00000437      -0.00000000       0.00000000      -0.00000000       0.00000000
Cl       5.69030148      14.22575369       0.00000000      -0.00001977      -0.00000920      -0.00000000       0.00000000      -0.00000000       0.00000000
Cl      11.38060295      14.22575369       0.00000000       0.00000924      -0.00002683      -0.00000000      -0.00000000      -0.00000000       0.00000000
Cl      17.07090443      14.22575369       0.00000000       0.00000078      -0.00001245      -0.00000000       0.00000000      -0.00000000       0.00000000
Cl       0.00000000      19.91605516       0.00000000      -0.00104980       0.00003764      -0.00000000       0.00000000      -0.00000001       0.00000000
Cl       5.69030148      19.91605516       0.00000000      -0.00001050       0.00018325      -0.00000000       0.00000000      -0.00000001       0.00000000
Cl      11.38060295      19.91605516       0.00000000      -0.00004506       0.00002504      -0.00000000      -0.00000000      -0.00000001       0.00000000
Cl      17.07090443      19.91605516       0.00000000       0.00000257      -0.00015638      -0.00000000       0.00000000      -0.00000001       0.00000000
Cl       0.00000000       2.84515074       5.69030148      -0.00009133      -0.00001171      -0.00001550       0.00000000       0.00000000       0.00000000
Cl       5.69030148       2.84515074       5.69030148       0.00002268      -0.00001610      -0.00000575       0.00000000       0.00000000       0.00000000
Cl      11.38060295       2.84515074       5.69030148       0.00001388      -0.00000374      -0.00000439      -0.00000000       0.00000000       0.00000000
Cl      17.07090443       2.84515074       5.69030148       0.00002648      -0.00000532      -0.00000665       0.00000000       0.00000000       0.00000000
Cl       0.00000000       8.53545221       5.69030148      -0.00002062      -0.00000122       0.00002384       0.00000000      -0.00000001       0.00000000
Cl       5.69030148       8.53545221       5.69030148       0.00000900       0.00000229      -0.00002434       0.00000000      -0.00000001       0.00000000
Cl      11.38060295       8.53545221       5.69030148       0.00001149       0.00001387       0.00000769      -0.00000000      -0.00000001       0.00000000
Cl      17.07090443       8.53545221       5.69030148       0.00000911      -0.00001929       0.00001740       0.00000000      -0.00000001       0.00000000
Cl       0.00000000      14.22575369       5.69030148      -0.00002062       0.00000122       0.00002384       0.00000000      -0.00000000       0.00000000
Cl       5.69030148      14.22575369       5.69030148       0.00000900      -0.00000229      -0.00002434       0.00000000      -0.00000000       0.00000000
Cl      11.38060295      14.22575369       5.69030148       0.00001149      -0.00001387       0.00000769      -0.00000000      -0.00000000       0.00000000
Cl      17.07090443      14.22575369       5.69030148       0.00000911       0.00001929       0.00001740       0.00000000      -0.00000000       0.00000000
Cl       0.00000000      19.91605516       5.69030148      -0.00009133       0.00001172      -0.00001550       0.00000000      -0.00000001       0.00000000
Cl       5.69030148      19.91605516       5.69030148       0.00002268       0.00001611      -0.00000575       0.00000000      -0.00000001       0.00000000
Cl      11.38060295      19.91605516       5.69030148       0.00001388       0.00000375      -0.00000439      -0.00000000      -0.00000001       0.00000000
Cl      17.07090443      19.91605516       5.69030148       0.00002648       0.00000533      -0.00000665       0.00000000      -0.00000001       0.00000000
Cl       0.00000000       2.84515074      11.38060295      -0.00001885      -0.00002977      -0.00000000       0.00000000       0.00000000      -0.00000000
Cl       5.69030148       2.84515074      11.38060295      -0.00001067      -0.00002588      -0.00000000       0.00000000       0.00000000      -0.00000000
Cl      11.38060295       2.84515074      11.38060295       0.00002427      -0.00004020      -0.00000000      -0.00000000       0.00000000      -0.00000000
Cl      17.07090443       2.84515074      11.38060295      -0.00001441      -0.00005197      -0.00000000       0.00000000       0.00000000      -0.00000000
Cl       0.00000000       8.53545221      11.38060295      -0.00001572       0.00001705      -0.00000000       0.00000000      -0.00000001      -0.00000000
Cl       5.69030148       8.53545221      11.38060295      -0.00001153      -0.00002225      -0.00000000       0.00000000      -0.00000001      -0.00000000
Cl      11.38060295       8.53545221      11.38060295       0.00004074       0.00001200      -0.00000000      -0.00000000      -0.00000001      -0.00000000
Cl      17.07090443       8.53545221      11.38060295      -0.00000818       0.00003337      -0.00000000       0.00000000      -0.00000001      -0.00000000
Cl       0.00000000      14.22575369      11.38060295      -0.00001572      -0.00001705      -0.00000000       0.00000000      -0.00000000      -0.00000000
Cl       5.69030148      14.22575369      11.38060295      -0.00001153       0.00002226      -0.00000000       0.00000000      -0.00000000      -0.00000000
Cl      11.38060295      14.22575369      11.38060295       0.00004074      -0.00001200      -0.00000000      -0.00000000      -0.00000000      -0.00000000
Cl      17.07090443      14.22575369      11.38060295      -0.00000818      -0.00003337      -0.00000000       0.00000000      -0.00000000      -0.00000000
Cl       0.00000000      19.91605516      11.38060295      -0.00001885       0.00002978      -0.00000000       0.00000000      -0.00000001      -0.00000000
Cl       5.69030148      19.91605516      11.38060295      -0.00001067       0.00002589      -0.00000000       0.00000000      -0.00000001      -0.00000000
Cl      11.38060295      19.91605516      11.38060295       0.00002427       0.00004021      -0.00000000      -0.00000000      -0.00000001      -0.00000000
Cl      17.07090443      19.91605516      11.38060295      -0.00001441       0.00005197      -0.00000000       0.00000000      -0.00000001      -0.00000000
Cl       0.00000000       2.84515074      17.07090443      -0.00009133      -0.00001171       0.00001550       0.00000000       0.00000000       0.00000000
Cl       5.69030148       2.84515074      17.07090443       0.00002268      -0.00001610       0.00000574       0.00000000       0.00000000       0.00000000
Cl      11.38060295       2.84515074      17.07090443       0.00001388      -0.00000374       0.00000439      -0.00000000       0.00000000       0.00000000
Cl      17.07090443       2.84515074      17.07090443       0.00002648      -0.00000532       0.00000664       0.00000000       0.00000000       0.00000000
Cl       0.00000000       8.53545221      17.07090443      -0.00002062      -0.00000122      -0.00002384       0.00000000      -0.00000001       0.00000000
Cl       5.69030148       8.53545221      17.07090443       0.00000900       0.00000229       0.00002434       0.00000000      -0.00000001       0.00000000
Cl      11.38060295       8.53545221      17.07090443       0.00001149       0.00001387      -0.00000769      -0.00000000      -0.00000001       0.00000000
Cl      17.07090443       8.53545221      17.07090443       0.00000911      -0.00001929      -0.00001740       0.00000000      -0.00000001       0.00000000
Cl       0.00000000      14.22575369      17.07090443      -0.00002062       0.00000122      -0.00002384       0.00000000      -0.00000000       0.00000000
Cl       5.69030148      14.22575369      17.07090443       0.00000900      -0.00000229       0.00002434       0.00000000      -0.00000000       0.00000000
Cl      11.38060295      14.22575369      17.07090443       0.00001149      -0.00001387      -0.00000769      -0.00000000      -0.00000000       0.00000000
Cl      17.07090443      14.22575369      17.07090443       0.00000911       0.00001929      -0.00001740       0.00000000      -0.00000000       0.00000000
Cl       0.00000000      19.91605516      17.07090443      -0.00009133       0.00001172       0.00001550       0.00000000      -0.00000001       0.00000000
Cl       5.69030148      19.91605516      17.07090443       0.00002268       0.00001611       0.00000574       0.00000000      -0.00000001       0.00000000
Cl      11.38060295      19.91605516      17.07090443       0.00001388       0.00000375       0.00000439      -0.00000000      -0.00000001       0.00000000
Cl      17.07090443      19.91605516      17.07090443       0.00002648       0.00000533       0.00000664       0.00000000      -0.00000001       0.00000000
Cl       0.00000000       0.00000000       2.84515074      -0.00104980      -0.00000000      -0.00003763       0.00000000       0.00000000       0.00000000
Cl       5.69030148       0.00000000       2.84515074      -0.00001050      -0.00000000      -0.00018325       0.00000000       0.00000000       0.00000000
Cl      11.38060295       0.00000000       2.84515074      -0.00004506      -0.00000000      -0.00002503      -0.00000000       0.00000000       0.00000000
Cl      17.07090443       0.00000000       2.84515074       0.00000257      -0.00000000       0.00015639       0.00000000       0.00000000       0.00000000
Cl       0.00000000       5.69030148       2.84515074      -0.00009133      -0.00001550      -0.00001171       0.00000000       0.00000000       0.00000000
Cl       5.69030148       5.69030148       2.84515074       0.00002268      -0.00000575      -0.00001610       0.00000000       0.00000000       0.00000000
Cl      11.38060295       5.69030148       2.84515074       0.00001388      -0.00000439      -0.00000374      -0.00000000       0.00000000       0.00000000
Cl      17.07090443       5.69030148       2.84515074       0.00002648      -0.00000665      -0.00000532       0.00000000       0.00000000       0.00000000
Cl       0.00000000      11.38060295       2.84515074      -0.00001885      -0.00000000      -0.00002977       0.00000000      -0.00000000       0.00000000
Cl       5.69030148      11.38060295       2.84515074      -0.00001067      -0.00000000      -0.00002588       0.00000000      -0.00000000       0.00000000
Cl      11.38060295      11.38060295       2.84515074       0.00002427      -0.00000000      -0.00004020      -0.00000000      -0.00000000       0.00000000
Cl      17.07090443      11.38060295       2.84515074      -0.00001441      -0.00000000      -0.00005197       0.00000000      -0.00000000       0.00000000
Cl       0.00000000      17.07090443       2.84515074      -0.00009133       0.00001550      -0.00001171       0.00000000       0.00000000       0.00000000
Cl       5.69030148      17.07090443       2.84515074       0.00002268       0.00000574      -0.00001610       0.00000000       0.00000000       0.00000000
Cl      11.38060295      17.07090443       2.84515074       0.00001388       0.00000439      -0.00000374      -0.00000000       0.00000000       0.00000000
Cl      17.07090443      17.07090443       2.84515074       0.00002648       0.00000664      -0.00000532       0.00000000       0.00000000       0.00000000
Cl       0.00000000       0.00000000       8.53545221      -0.00000182      -0.00000000       0.00000437       0.00000000       0.00000000      -0.00000001
Cl       5.69030148       0.00000000       8.53545221      -0.00001977      -0.00000000       0.00000920       0.00000000       0.00000000      -0.00000001
Cl      11.38060295       0.00000000       8.53545221       0.00000924      -0.00000000       0.00002683      -0.00000000       0.00000000      -0.00000001
Cl      17.07090443       0.00000000       8.53545221       0.00000078      -0.00000000       0.00001246       0.00000000       0.00000000      -0.00000001
Cl       0.00000000       5.69030148       8.53545221      -0.00002062       0.00002384      -0.00000122       0.00000000       0.00000000      -0.00000001
Cl       5.69030148       5.69030148       8.53545221       0.00000900      -0.00002434       0.00000229       0.00000000       0.00000000      -0.00000001
Cl      11.38060295       5.69030148       8.53545221       0.00001149       0.00000769       0.00001387      -0.00000000       0.00000000      -0.00000001
Cl      17.07090443       5.69030148       8.53545221       0.00000911       0.00001740      -0.00001929       0.00000000       0.00000000      -0.00000001
Cl       0.00000000      11.38060295       8.53545221      -0.00001572      -0.00000000       0.00001705       0.00000000      -0.00000000      -0.00000001
Cl       5.69030148      11.38060295       8.53545221      -0.00001153      -0.00000000      -0.00002225       0.00000000      -0.00000000      -0.00000001
Cl      11.38060295      11.38060295       8.53545221       0.00004074      -0.00000000       0.00001200      -0.00000000      -0.00000000      -0.00000001
Cl      17.07090443      11.38060295       8.53545221      -0.00000818      -0.00000000       0.00003337       0.00000000      -0.00000000      -0.00000001
Cl       0.00000000      17.07090443       8.53545221      -0.00002062      -0.00002384      -0.00000122       0.00000000       0.00000000      -0.00000001
Cl       5.69030148      17.07090443       8.53545221       0.00000900       0.00002434       0.00000229       0.00000000       0.00000000      -0.00000001
Cl      11.38060295      17.07090443       8.53545221       0.00001149      -0.00000769       0.00001387      -0.00000000       0.00000000      -0.00000001
Cl      17.07090443      17.07090443       8.53545221       0.00000911      -0.00001740      -0.00001929       0.00000000       0.00000000      -0.00000001
Cl       0.00000000       0.00000000      14.22575369      -0.00000182      -0.00000000      -0.00000437       0.00000000       0.00000000      -0.00000000
Cl       5.69030148       0.00000000      14.22575369      -0.00001977      -0.00000000      -0.00000920       0.00000000       0.00000000      -0.00000000
Cl      11.38060295       0.00000000      14.22575369       0.00000924      -0.00000000      -0.00002683      -0.00000000       0.00000000      -0.00000000
Cl      17.07090443       0.00000000      14.22575369       0.00000078      -0.00000000      -0.00001245       0.00000000       0.00000000      -0.00000000
Cl       0.00000000       5.69030148      14.22575369      -0.00002062       0.00002384       0.00000122       0.00000000       0.00000000      -0.00000000
Cl       5.69030148       5.69030148      14.22575369       0.00000900      -0.00002434      -0.00000229       0.00000000       0.00000000      -0.00000000
Cl      11.38060295       5.69030148      14.22575369       0.00001149       0.00000769      -0.00001387      -0.00000000       0.00000000      -0.00000000
Cl      17.07090443       5.69030148      14.22575369       0.00000911       0.00001740       0.00001929       0.00000000       0.00000000      -0.00000000
Cl       0.00000000      11.38060295      14.22575369      -0.00001572      -0.00000000      -0.00001705       0.00000000      -0.00000000      -0.00000000
Cl       5.69030148      11.38060295      14.22575369      -0.00001153      -0.00000000       0.00002226       0.00000000      -0.00000000      -0.00000000
Cl      11.38060295      11.38060295      14.22575369       0.00004074      -0.00000000      -0.00001200      -0.00000000      -0.00000000      -0.00000000
Cl      17.07090443      11.38060295      14.22575369      -0.00000818      -0.00000000      -0.00003337       0.00000000      -0.00000000      -0.00000000
Cl       0.00000000      17.07090443      14.22575369      -0.00002062      -0.00002384       0.00000122       0.00000000       0.00000000      -0.00000000
Cl       5.69030148      17.07090443      14.22575369       0.00000900       0.00002434      -0.00000229       0.00000000       0.00000000      -0.00000000
Cl      11.38060295      17.07090443      14.22575369       0.00001149      -0.00000769      -0.00001387      -0.00000000       0.00000000      -0.00000000
Cl      17.07090443      17.07090443      14.22575369       0.00000911      -0.00001740       0.00001929       0.00000000       0.00000000      -0.00000000
Cl       0.00000000       0.00000000      19.91605516      -0.00104980      -0.00000000       0.00003764       0.00000000       0.00000000      -0.00000001
Cl       5.69030148       0.00000000      19.91605516      -0.00001050      -0.00000000       0.00018325       0.00000000       0.00000000      -0.00000001
Cl      11.38060295       0.00000000      19.91605516      -0.00004506      -0.00000000       0.00002504      -0.00000000       0.00000000      -0.00000001
Cl      17.07090443       0.00000000      19.91605516       0.00000257      -0.00000000      -0.00015638       0.00000000       0.00000000      -0.00000001
Cl       0.00000000       5.69030148      19.91605516      -0.00009133      -0.00001550       0.00001172       0.00000000       0.00000000      -0.00000001
Cl       5.69030148       5.69030148      19.91605516       0.00002268      -0.00000575       0.00001611       0.00000000       0.00000000      -0.00000001
Cl      11.38060295       5.69030148      19.91605516       0.00001388      -0.00000439       0.00000375      -0.00000000       0.00000000      -0.00000001
Cl      17.07090443       5.69030148      19.91605516       0.00002648      -0.00000665       0.00000533       0.00000000       0.00000000      -0.00000001
Cl       0.00000000      11.38060295      19.91605516      -0.00001885      -0.00000000       0.00002978       0.00000000      -0.00000000      -0.00000001
Cl       5.69030148      11.38060295      19.91605516      -0.00001067      -0.00000000       0.00002589       0.00000000      -0.00000000      -0.00000001
Cl      11.38060295      11.38060295      19.91605516       0.00002427      -0.00000000       0.00004021      -0.00000000      -0.00000000      -0.00000001
Cl      17.07090443      11.38060295      19.91605516      -0.00001441      -0.00000000       0.00005197       0.00000000      -0.00000000      -0.00000001
Cl       0.00000000      17.07090443      19.91605516      -0.00009133       0.00001550       0.00001172       0.00000000       0.00000000      -0.00000001
Cl       5.69030148      17.07090443      19.91605516       0.00002268       0.00000574       0.00001611       0.00000000       0.00000000      -0.00000001
Cl      11.38060295      17.07090443      19.91605516       0.00001388       0.00000439       0.00000375      -0.00000000       0.00000000      -0.00000001
Cl      17.07090443      17.07090443      19.91605516       0.00002648       0.00000664       0.00000533       0.00000000       0.00000000      -0.00000001
512
Lattice="22.7612059 0.0 0.0 0.0 22.7612059 0.0 0.0 0.0 22.7612059" Properties=species:S:1:pos:R:3:forces:R:3:displacements:R:3 pbc="T T T"
Na       0.00000000       0.00000000       0.00000000       0.00012842       0.00007285       0.00007285       0.00000000       0.00000000       0.00000000
Na       5.69030148       0.00000000       0.00000000       0.00013793      -0.00007414      -0.00007414       0.00000000       0.00000000       0.00000000
Na      11.38060295       0.00000000       0.00000000      -0.00000466      -0.00001566      -0.00001566      -0.00000000       0.00000000       0.00000000
Na      17.07090443       0.00000000       0.00000000      -0.00000048       0.00001667       0.00001667       0.00000000       0.00000000       0.00000000
Na       0.00000000       5.69030148       0.00000000       0.00012842      -0.00007285       0.00007285       0.00000000       0.00000000       0.00000000
Na       5.69030148       5.69030148       0.00000000       0.00013793       0.00007413      -0.00007414       0.00000000       0.00000000       0.00000000
Na      11.38060295       5.69030148       0.00000000      -0.00000466       0.00001565      -0.00001566      -0.00000000       0.00000000       0.00000000
Na      17.07090443       5.69030148       0.00000000      -0.00000048      -0.00001668       0.00001667       0.00000000       0.00000000       0.00000000
Na       0.00000000      11.38060295       0.00000000      -0.00000117       0.00000909       0.00000729       0.00000000      -0.00000000       0.00000000
Na       5.69030148      11.38060295       0.00000000      -0.00000236      -0.00000937      -0.00000671       0.00000000      -0.00000000       0.00000000
Na      11.38060295      11.38060295       0.00000000       0.00000187      -0.00000336       0.00000154      -0.00000000      -0.00000000       0.00000000
Na      17.07090443      11.38060295       0.00000000       0.00000245       0.00000055      -0.00000200       0.00000000      -0.00000000       0.00000000
Na       0.00000000      17.07090443       0.00000000      -0.00000117      -0.00000910       0.00000729       0.00000000       0.00000000       0.00000000
Na       5.69030148      17.07090443       0.00000000      -0.00000236       0.00000937      -0.00000671       0.00000000       0.00000000       0.00000000
Na      11.38060295      17.07090443       0.00000000       0.00000187       0.00000335       0.00000154      -0.00000000       0.00000000       0.00000000
Na      17.07090443      17.07090443       0.00000000       0.00000245      -0.00000056      -0.00000200       0.00000000       0.00000000       0.00000000
Na       0.00000000       0.00000000       5.69030148       0.00012842       0.00007285      -0.00007285       0.00000000       0.00000000       0.00000000
Na       5.69030148       0.00000000       5.69030148       0.00013793      -0.00007414       0.00007413       0.00000000       0.00000000       0.00000000
Na      11.38060295       0.00000000       5.69030148      -0.00000466      -0.00001566       0.00001565      -0.00000000       0.00000000       0.00000000
Na      17.07090443       0.00000000       5.69030148      -0.00000048       0.00001667      -0.00001668       0.00000000       0.00000000       0.00000000
Na       0.00000000       5.69030148       5.69030148       0.00012842      -0.00007285      -0.00007285       0.00000000       0.00000000       0.00000000
Na       5.69030148       5.69030148       5.69030148       0.00013793       0.00007413       0.00007413       0.00000000       0.00000000       0.00000000
Na      11.38060295       5.69030148       5.69030148      -0.00000466       0.00001565       0.00001565      -0.00000000       0.00000000       0.00000000
Na      17.07090443       5.69030148       5.69030148      -0.00000048      -0.00001668      -0.00001668       0.00000000       0.00000000       0.00000000
Na       0.00000000      11.38060295       5.69030148      -0.00000117       0.00000909      -0.00000729       0.00000000      -0.00000000       0.00000000
Na       5.69030148      11.38060295       5.69030148      -0.00000236      -0.00000937       0.00000671       0.00000000      -0.00000000       0.00000000
Na      11.38060295      11.38060295       5.69030148       0.00000187      -0.00000336      -0.00000155      -0.00000000      -0.00000000       0.00000000
Na      17.07090443      11.38060295       5.69030148       0.00000245       0.00000055       0.00000199       0.00000000      -0.00000000       0.00000000
Na       0.00000000      17.07090443       5.69030148      -0.00000117      -0.00000910      -0.00000729       0.00000000       0.00000000       0.00000000
Na       5.69030148      17.07090443       5.69030148      -0.00000236       0.00000937       0.00000671       0.00000000       0.00000000       0.00000000
Na      11.38060295      17.07090443       5.69030148       0.00000187       0.00000335      -0.00000155      -0.00000000       0.00000000       0.00000000
Na      17.07090443      17.07090443       5.69030148       0.00000245      -0.00000056       0.00000199       0.00000000       0.00000000       0.00000000
Na       0.00000000       0.00000000      11.38060295      -0.00000117       0.00000729       0.00000909       0.00000000       0.00000000      -0.00000000
Na       5.69030148       0.00000000      11.38060295      -0.00000236      -0.00000671      -0.00000937       0.00000000       0.00000000      -0.00000000
Na      11.38060295       0.00000000      11.38060295       0.00000187       0.00000154      -0.00000336      -0.00000000       0.00000000      -0.00000000
Na      17.07090443       0.00000000      11.38060295       0.00000245      -0.00000200       0.00000055       0.00000000       0.00000000      -0.00000000
Na       0.00000000       5.69030148      11.38060295      -0.00000117      -0.00000729       0.00000909       0.00000000       0.00000000      -0.00000000
Na       5.69030148       5.69030148      11.38060295      -0.00000236       0.00000671      -0.00000937       0.00000000       0.00000000      -0.00000000
Na      11.38060295       5.69030148      11.38060295       0.00000187      -0.00000155      -0.00000336      -0.00000000       0.00000000      -0.00000000
Na      17.07090443       5.69030148      11.38060295       0.00000245       0.00000199       0.00000055       0.00000000       0.00000000      -0.00000000
Na       0.00000000      11.38060295      11.38060295      -0.00000063      -0.00000000      -0.00000000       0.00000000      -0.00000000      -0.00000000
Na       5.69030148      11.38060295      11.38060295      -0.00000473       0.00000084       0.00000084       0.00000000      -0.00000000      -0.00000000
Na      11.38060295      11.38060295      11.38060295      -0.00000029       0.00000005       0.00000005      -0.00000000      -0.00000000      -0.00000000
Na      17.07090443      11.38060295      11.38060295       0.00000245      -0.00000160      -0.00000160       0.00000000      -0.00000000      -0.00000000
Na       0.00000000      17.07090443      11.38060295      -0.00000063      -0.00000000      -0.00000000       0.00000000       0.00000000      -0.00000000
Na       5.69030148      17.07090443      11.38060295      -0.00000473      -0.00000085       0.00000084       0.00000000       0.00000000      -0.00000000
Na      11.38060295      17.07090443      11.38060295      -0.00000029      -0.00000006       0.00000005      -0.00000000       0.00000000      -0.00000000
Na      17.07090443      17.07090443      11.38060295       0.00000245       0.00000159      -0.00000160       0.00000000       0.00000000      -0.00000000
Na       0.00000000       0.00000000      17.07090443      -0.00000117       0.00000729      -0.00000910       0.00000000       0.00000000       0.00000000
Na       5.69030148       0.00000000      17.07090443      -0.00000236      -0.00000671       0.00000937       0.00000000       0.00000000       0.00000000
Na      11.38060295       0.00000000      17.07090443       0.00000187       0.00000154       0.00000335      -0.00000000       0.00000000       0.00000000
Na      17.07090443       0.00000000      17.07090443       0.00000245      -0.00000200      -0.00000056       0.00000000       0.00000000       0.00000000
Na       0.00000000       5.69030148      17.07090443      -0.00000117      -0.00000729      -0.00000910       0.00000000       0.00000000       0.00000000
Na       5.69030148       5.69030148      17.07090443      -0.00000236       0.00000671       0.00000937       0.00000000       0.00000000       0.00000000
Na      11.38060295       5.69030148      17.07090443       0.00000187      -0.00000155       0.00000335      -0.00000000       0.00000000       0.00000000
Na      17.07090443       5.69030148      17.07090443       0.00000245       0.00000199      -0.00000056       0.00000000       0.00000000       0.00000000
Na       0.00000000      11.38060295      17.07090443      -0.00000063      -0.00000000      -0.00000000       0.00000000      -0.00000000       0.00000000
Na       5.69030148      11.38060295      17.07090443      -0.00000473       0.00000084      -0.00000085       0.00000000      -0.00000000       0.00000000
Na      11.38060295      11.38060295      17.07090443      -0.00000029       0.00000005      -0.00000006      -0.00000000      -0.00000000       0.00000000
Na      17.07090443      11.38060295      17.07090443       0.00000245      -0.00000160       0.00000159       0.00000000      -0.00000000       0.00000000
Na       0.00000000      17.07090443      17.07090443      -0.00000063      -0.00000000      -0.00000000       0.00000000       0.00000000       0.00000000
Na       5.69030148      17.07090443      17.07090443      -0.00000473      -0.00000085      -0.00000085       0.00000000       0.00000000       0.00000000
Na      11.38060295      17.07090443      17.07090443      -0.00000029      -0.00000006      -0.00000006      -0.00000000       0.00000000       0.00000000
Na      17.07090443      17.07090443      17.07090443       0.00000245       0.00000159       0.00000159       0.00000000       0.00000000       0.00000000
Na       0.00000000       2.84515074       2.84515074       0.00942659       0.00000000       0.00000000       0.00000000       0.00000000       0.00000000
Na       5.69030148       2.84515074       2.84515074       0.00981276       0.00000000       0.00000000       0.00000000       0.00000000       0.00000000
Na      11.38060295       2.84515074       2.84515074      -0.00001147       0.00000000       0.00000000      -0.00000000       0.00000000       0.00000000
Na      17.07090443       2.84515074       2.84515074      -0.00000477       0.00000000       0.00000000       0.00000000       0.00000000       0.00000000
Na       0.00000000       8.53545221       2.84515074       0.00006105       0.00019715       0.00000000       0.00000000      -0.00000001       0.00000000
Na       5.69030148       8.53545221       2.84515074       0.00006851      -0.00018970       0.00000000       0.00000000      -0.00000001       0.00000000
Na      11.38060295       8.53545221       2.84515074      -0.00001209       0.00001316       0.00000000      -0.00000000      -0.00000001       0.00000000
Na      17.07090443       8.53545221       2.84515074      -0.00000912      -0.00001308       0.00000000       0.00000000      -0.00000001       0.00000000
Na       0.00000000      14.22575369       2.84515074      -0.00000233       0.00000000       0.00000000       0.00000000      -0.00000000       0.00000000
Na       5.69030148      14.22575369       2.84515074      -0.00000427       0.00000000       0.00000000       0.00000000      -0.00000000       0.00000000
Na      11.38060295      14.22575369       2.84515074      -0.00000099       0.00000000       0.00000000      -0.00000000      -0.00000000       0.00000000
Na      17.07090443      14.22575369       2.84515074       0.00000194       0.00000000       0.00000000       0.00000000      -0.00000000       0.00000000
Na       0.00000000      19.91605516       2.84515074       0.00006105      -0.00019714       0.00000000       0.00000000      -0.00000001       0.00000000
Na       5.69030148      19.91605516       2.84515074       0.00006851       0.00018971       0.00000000       0.00000000      -0.00000001       0.00000000
Na      11.38060295      19.91605516       2.84515074      -0.00001209      -0.00001315       0.00000000      -0.00000000      -0.00000001       0.00000000
Na      17.07090443      19.91605516       2.84515074      -0.00000912       0.00001309       0.00000000       0.00000000      -0.00000001       0.00000000
Na       0.00000000       2.84515074       8.53545221       0.00006105       0.00000000       0.00019715       0.00000000       0.00000000      -0.00000001
Na       5.69030148       2.84515074       8.53545221       0.00006851       0.00000000      -0.00018970       0.00000000       0.00000000      -0.00000001
Na      11.38060295       2.84515074       8.53545221      -0.00001209       0.00000000       0.00001316      -0.00000000       0.00000000      -0.00000001
Na      17.07090443       2.84515074       8.53545221      -0.00000912       0.00000000      -0.00001308       0.00000000       0.00000000      -0.00000001
Na       0.00000000       8.53545221       8.53545221      -0.00000181      -0.00000634      -0.00000634       0.00000000      -0.00000001      -0.00000001
Na       5.69030148       8.53545221       8.53545221      -0.00000301       0.00000902       0.00000902       0.00000000      -0.00000001      -0.00000001
Na      11.38060295       8.53545221       8.53545221       0.00000479      -0.00000095      -0.00000095      -0.00000000      -0.00000001      -0.00000001
Na      17.07090443       8.53545221       8.53545221       0.00000462      -0.00000101      -0.00000101       0.00000000      -0.00000001      -0.00000001
Na       0.00000000      14.22575369       8.53545221       0.00000004       0.00000000      -0.00000201       0.00000000      -0.00000000      -0.00000001
Na       5.69030148      14.22575369       8.53545221      -0.00000422       0.00000000       0.00000201       0.00000000      -0.00000000      -0.00000001
Na      11.38060295      14.22575369       8.53545221      -0.00000085       0.00000000      -0.00000139      -0.00000000      -0.00000000      -0.00000001
Na      17.07090443      14.22575369       8.53545221       0.00000150       0.00000000      -0.00000546       0.00000000      -0.00000000      -0.00000001
Na       0.00000000      19.91605516       8.53545221      -0.00000181       0.00000636      -0.00000634       0.00000000      -0.00000001      -0.00000001
Na       5.69030148      19.91605516       8.53545221      -0.00000301      -0.00000901       0.00000902       0.00000000      -0.00000001      -0.00000001
Na      11.38060295      19.91605516       8.53545221       0.00000479       0.00000096      -0.00000095      -0.00000000      -0.00000001      -0.00000001
Na      17.07090443      19.91605516       8.53545221       0.00000462       0.00000102      -0.00000101       0.00000000      -0.00000001      -0.00000001
Na       0.00000000       2.84515074      14.22575369      -0.00000233       0.00000000       0.00000000       0.00000000       0.00000000      -0.00000000
Na       5.69030148       2.84515074      14.22575369      -0.00000427       0.00000000       0.00000000       0.00000000       0.00000000      -0.00000000
Na      11.38060295       2.84515074      14.22575369      -0.00000099       0.00000000       0.00000000      -0.00000000       0.00000000      -0.00000000
Na      17.07090443       2.84515074      14.22575369       0.00000194       0.00000000       0.00000000       0.00000000       0.00000000      -0.00000000
Na       0.00000000       8.53545221      14.22575369       0.00000004      -0.00000201       0.00000000       0.00000000      -0.00000001      -0.00000000
Na       5.69030148       8.53545221      14.22575369      -0.00000422       0.00000201       0.00000000       0.00000000      -0.00000001      -0.00000000
Na      11.38060295       8.53545221      14.22575369      -0.00000085      -0.00000139       0.00000000      -0.00000000      -0.00000001      -0.00000000
Na      17.07090443       8.53545221      14.22575369       0.00000150      -0.00000546       0.00000000       0.00000000      -0.00000001      -0.00000000
Na       0.00000000      14.22575369      14.22575369       0.00000214       0.00000000       0.00000000       0.00000000      -0.00000000      -0.00000000
Na       5.69030148      14.22575369      14.22575369      -0.00000451       0.00000000       0.00000000       0.00000000      -0.00000000      -0.00000000
Na      11.38060295      14.22575369      14.22575369      -0.00000656       0.00000000       0.00000000      -0.00000000      -0.00000000      -0.00000000
Na      17.07090443      14.22575369      14.22575369       0.00000071       0.00000000       0.00000000       0.00000000      -0.00000000      -0.00000000
Na       0.00000000      19.91605516      14.22575369       0.00000004       0.00000202       0.00000000       0.00000000      -0.00000001      -0.00000000
Na       5.69030148      19.91605516      14.22575369      -0.00000422      -0.00000200       0.00000000       0.00000000      -0.00000001      -0.00000000
Na      11.38060295      19.91605516      14.22575369      -0.00000085       0.00000140       0.00000000      -0.00000000      -0.00000001      -0.00000000
Na      17.07090443      19.91605516      14.22575369       0.00000150       0.00000547       0.00000000       0.00000000      -0.00000001      -0.00000000
Na       0.00000000       2.84515074      19.91605516       0.00006105       0.00000000      -0.00019714       0.00000000       0.00000000      -0.00000001
Na       5.69030148       2.84515074      19.91605516       0.00006851       0.00000000       0.00018971       0.00000000       0.00000000      -0.00000001
Na      11.38060295       2.84515074      19.91605516      -0.00001209       0.00000000      -0.00001315      -0.00000000       0.00000000      -0.00000001
Na      17.07090443       2.84515074      19.91605516      -0.00000912       0.00000000       0.00001309       0.00000000       0.00000000      -0.00000001
Na       0.00000000       8.53545221      19.91605516      -0.00000181      -0.00000634       0.00000636       0.00000000      -0.00000001      -0.00000001
Na       5.69030148       8.53545221      19.91605516      -0.00000301       0.00000902      -0.00000901       0.00000000      -0.00000001      -0.00000001
Na      11.38060295       8.53545221      19.91605516       0.00000479      -0.00000095       0.00000096      -0.00000000      -0.00000001      -0.00000001
Na      17.07090443       8.53545221      19.91605516       0.00000462      -0.00000101       0.00000102       0.00000000      -0.00000001      -0.00000001
Na       0.00000000      14.22575369      19.91605516       0.00000004       0.00000000       0.00000202       0.00000000      -0.00000000      -0.00000001
Na       5.69030148      14.22575369      19.91605516      -0.00000422       0.00000000      -0.00000200       0.00000000      -0.00000000      -0.00000001
Na      11.38060295      14.22575369      19.91605516      -0.00000085       0.00000000       0.00000140      -0.00000000      -0.00000000      -0.00000001
Na      17.07090443      14.22575369      19.91605516       0.00000150       0.00000000       0.00000547       0.00000000      -0.00000000      -0.00000001
Na       0.00000000      19.91605516      19.91605516      -0.00000181       0.00000636       0.00000636       0.00000000      -0.00000001      -0.00000001
Na       5.69030148      19.91605516      19.91605516      -0.00000301      -0.00000901      -0.00000901       0.00000000      -0.00000001      -0.00000001
Na      11.38060295      19.91605516      19.91605516       0.00000479       0.00000096       0.00000096      -0.00000000      -0.00000001      -0.00000001
Na      17.07090443      19.91605516      19.91605516       0.00000462       0.00000102       0.00000102       0.00000000      -0.00000001      -0.00000001
Na       2.84515074       0.00000000       2.84515074      -0.00099618       0.00000415       0.00000000       0.00000000       0.00000000       0.00000000
Na       8.53545221       0.00000000       2.84515074      -0.00004250      -0.00016127       0.00000000      -0.00000001       0.00000000       0.00000000
Na      14.22575369       0.00000000       2.84515074      -0.00000790       0.00000088       0.00000000      -0.00000000       0.00000000       0.00000000
Na      19.91605516       0.00000000       2.84515074      -0.00004415       0.00016261       0.00000000      -0.00000001       0.00000000       0.00000000
Na       2.84515074       5.69030148       2.84515074      -0.00099618      -0.00000415       0.00000000       0.00000000       0.00000000       0.00000000
Na       8.53545221       5.69030148       2.84515074      -0.00004250       0.00016126       0.00000000      -0.00000001       0.00000000       0.00000000
Na      14.22575369       5.69030148       2.84515074      -0.00000790      -0.00000088       0.00000000      -0.00000000       0.00000000       0.00000000
Na      19.91605516       5.69030148       2.84515074      -0.00004415      -0.00016262       0.00000000      -0.00000001       0.00000000       0.00000000
Na       2.84515074      11.38060295       2.84515074      -0.00002150       0.00000091       0.00000000       0.00000000      -0.00000000       0.00000000
Na       8.53545221      11.38060295       2.84515074       0.00001307      -0.00002055       0.00000000      -0.00000001      -0.00000000       0.00000000
Na      14.22575369      11.38060295       2.84515074      -0.00000610      -0.00000128       0.00000000      -0.00000000      -0.00000000       0.00000000
Na      19.91605516      11.38060295       2.84515074       0.00001824       0.00001840       0.00000000      -0.00000001      -0.00000000       0.00000000
Na       2.84515074      17.07090443       2.84515074      -0.00002150      -0.00000091       0.00000000       0.00000000       0.00000000       0.00000000
Na       8.53545221      17.07090443       2.84515074       0.00001307       0.00002055       0.00000000      -0.00000001       0.00000000       0.00000000
Na      14.22575369      17.07090443       2.84515074      -0.00000610       0.00000128       0.00000000      -0.00000000       0.00000000       0.00000000
Na      19.91605516      17.07090443       2.84515074       0.00001824      -0.00001841       0.00000000      -0.00000001       0.00000000       0.00000000
Na       2.84515074       0.00000000       8.53545221      -0.00006878      -0.00000188       0.00000312       0.00000000       0.00000000      -0.00000001
Na       8.53545221       0.00000000       8.53545221       0.00002229       0.00000939       0.00000252      -0.00000001       0.00000000      -0.00000001
Na      14.22575369       0.00000000       8.53545221      -0.00000930       0.00000012      -0.00000008      -0.00000000       0.00000000      -0.00000001
Na      19.91605516       0.00000000       8.53545221       0.00002132      -0.00000618      -0.00000179      -0.00000001       0.00000000      -0.00000001
Na       2.84515074       5.69030148       8.53545221      -0.00006878       0.00000188       0.00000312       0.00000000       0.00000000      -0.00000001
Na       8.53545221       5.69030148       8.53545221       0.00002229      -0.00000940       0.00000252      -0.00000001       0.00000000      -0.00000001
Na      14.22575369       5.69030148       8.53545221      -0.00000930      -0.00000012      -0.00000008      -0.00000000       0.00000000      -0.00000001
Na      19.91605516       5.69030148       8.53545221       0.00002132       0.00000618      -0.00000179      -0.00000001       0.00000000      -0.00000001
Na       2.84515074      11.38060295       8.53545221      -0.00000528       0.00000067      -0.00000094       0.00000000      -0.00000000      -0.00000001
Na       8.53545221      11.38060295       8.53545221       0.00000425       0.00000005       0.00000043      -0.00000001      -0.00000000      -0.00000001
Na      14.22575369      11.38060295       8.53545221      -0.00000398      -0.00000165      -0.00000150      -0.00000000      -0.00000000      -0.00000001
Na      19.91605516      11.38060295       8.53545221       0.00000761      -0.00000015      -0.00000197      -0.00000001      -0.00000000      -0.00000001
Na       2.84515074      17.07090443       8.53545221      -0.00000528      -0.00000067      -0.00000094       0.00000000       0.00000000      -0.00000001
Na       8.53545221      17.07090443       8.53545221       0.00000425      -0.00000006       0.00000043      -0.00000001       0.00000000      -0.00000001
Na      14.22575369      17.07090443       8.53545221      -0.00000398       0.00000165      -0.00000150      -0.00000000       0.00000000      -0.00000001
Na      19.91605516      17.07090443       8.53545221       0.00000761       0.00000015      -0.00000197      -0.00000001       0.00000000      -0.00000001
Na       2.84515074       0.00000000      14.22575369      -0.00000690       0.00000070       0.00000000       0.00000000       0.00000000      -0.00000000
Na       8.53545221       0.00000000      14.22575369       0.00000647      -0.00000142       0.00000000      -0.00000001       0.00000000      -0.00000000
Na      14.22575369       0.00000000      14.22575369      -0.00000155      -0.00000163       0.00000000      -0.00000000       0.00000000      -0.00000000
Na      19.91605516       0.00000000      14.22575369       0.00000689       0.00000122       0.00000000      -0.00000001       0.00000000      -0.00000000
Na       2.84515074       5.69030148      14.22575369      -0.00000690      -0.00000070       0.00000000       0.00000000       0.00000000      -0.00000000
Na       8.53545221       5.69030148      14.22575369       0.00000647       0.00000141       0.00000000      -0.00000001       0.00000000      -0.00000000
Na      14.22575369       5.69030148      14.22575369      -0.00000155       0.00000163       0.00000000      -0.00000000       0.00000000      -0.00000000
Na      19.91605516       5.69030148      14.22575369       0.00000689      -0.00000122       0.00000000      -0.00000001       0.00000000      -0.00000000
Na       2.84515074      11.38060295      14.22575369      -0.00000464      -0.00000034       0.00000000       0.00000000      -0.00000000      -0.00000000
Na       8.53545221      11.38060295      14.22575369       0.00000514       0.00000081       0.00000000      -0.00000001      -0.00000000      -0.00000000
Na      14.22575369      11.38060295      14.22575369      -0.00000414      -0.00000080       0.00000000      -0.00000000      -0.00000000      -0.00000000
Na      19.91605516      11.38060295      14.22575369       0.00000788      -0.00000041       0.00000000      -0.00000001      -0.00000000      -0.00000000
Na       2.84515074      17.07090443      14.22575369      -0.00000464       0.00000034       0.00000000       0.00000000       0.00000000      -0.00000000
Na       8.53545221      17.07090443      14.22575369       0.00000514      -0.00000082       0.00000000      -0.00000001       0.00000000      -0.00000000
Na      14.22575369      17.07090443      14.22575369      -0.00000414       0.00000080       0.00000000      -0.00000000       0.00000000      -0.00000000
Na      19.91605516      17.07090443      14.22575369       0.00000788       0.00000041       0.00000000      -0.00000001       0.00000000      -0.00000000
Na       2.84515074       0.00000000      19.91605516      -0.00006878      -0.00000188      -0.00000311       0.00000000       0.00000000      -0.00000001
Na       8.53545221       0.00000000      19.91605516       0.00002229       0.00000939      -0.00000251      -0.00000001       0.00000000      -0.00000001
Na      14.22575369       0.00000000      19.91605516      -0.00000930       0.00000012       0.00000009      -0.00000000       0.00000000      -0.00000001
Na      19.91605516       0.00000000      19.91605516       0.00002132      -0.00000618       0.00000180      -0.00000001       0.00000000      -0.00000001
Na       2.84515074       5.69030148      19.91605516      -0.00006878       0.00000188      -0.00000311       0.00000000       0.00000000      -0.00000001
Na       8.53545221       5.69030148      19.91605516       0.00002229      -0.00000940      -0.00000251      -0.00000001       0.00000000      -0.00000001
Na      14.22575369       5.69030148      19.91605516      -0.00000930      -0.00000012       0.00000009      -0.00000000       0.00000000      -0.00000001
Na      19.91605516       5.69030148      19.91605516       0.00002132       0.00000618       0.00000180      -0.00000001       0.00000000      -0.00000001
Na       2.84515074      11.38060295      19.91605516      -0.00000528       0.00000067       0.00000095       0.00000000      -0.00000000      -0.00000001
Na       8.53545221      11.38060295      19.91605516       0.00000425       0.00000005      -0.00000042      -0.00000001      -0.00000000      -0.00000001
Na      14.22575369      11.38060295      19.91605516      -0.00000398      -0.00000165       0.00000151      -0.00000000      -0.00000000      -0.00000001
Na      19.91605516      11.38060295      19.91605516       0.00000761      -0.00000015       0.00000198      -0.00000001      -0.00000000      -0.00000001
Na       2.84515074      17.07090443      19.91605516      -0.00000528      -0.00000067       0.00000095       0.00000000       0.00000000      -0.00000001
Na       8.53545221      17.07090443      19.91605516       0.00000425      -0.00000006      -0.00000042      -0.00000001       0.00000000      -0.00000001
Na      14.22575369      17.07090443      19.91605516      -0.00000398       0.00000165       0.00000151      -0.00000000       0.00000000      -0.00000001
Na      19.91605516      17.07090443      19.91605516       0.00000761       0.00000015       0.00000198      -0.00000001       0.00000000      -0.00000001
Na       2.84515074       2.84515074       0.00000000      -0.00099618       0.00000000       0.00000415       0.00000000       0.00000000       0.00000000
Na       8.53545221       2.84515074       0.00000000      -0.00004250       0.00000000      -0.00016127      -0.00000001       0.00000000       0.00000000
Na      14.22575369       2.84515074       0.00000000      -0.00000790       0.00000000       0.00000088      -0.00000000       0.00000000       0.00000000
Na      19.91605516       2.84515074       0.00000000      -0.00004415       0.00000000       0.00016261      -0.00000001       0.00000000       0.00000000
Na       2.84515074       8.53545221       0.00000000      -0.00006878       0.00000312      -0.00000188       0.00000000      -0.00000001       0.00000000
Na       8.53545221       8.53545221       0.00000000       0.00002229       0.00000252       0.00000939      -0.00000001      -0.00000001       0.00000000
Na      14.22575369       8.53545221       0.00000000      -0.00000930      -0.00000008       0.00000012      -0.00000000      -0.00000001       0.00000000
Na      19.91605516       8.53545221       0.00000000       0.00002132      -0.00000179      -0.00000618      -0.00000001      -0.00000001       0.00000000
Na       2.84515074      14.22575369       0.00000000      -0.00000690       0.00000000       0.00000070       0.00000000      -0.00000000       0.00000000
Na       8.53545221      14.22575369       0.00000000       0.00000647       0.00000000      -0.00000142      -0.00000001      -0.00000000       0.00000000
Na      14.22575369      14.22575369       0.00000000      -0.00000155       0.00000000      -0.00000163      -0.00000000      -0.00000000       0.00000000
Na      19.91605516      14.22575369       0.00000000       0.00000689       0.00000000       0.00000122      -0.00000001      -0.00000000       0.00000000
Na       2.84515074      19.91605516       0.00000000      -0.00006878      -0.00000311      -0.00000188       0.00000000      -0.00000001       0.00000000
Na       8.53545221      19.91605516       0.00000000       0.00002229      -0.00000251       0.00000939      -0.00000001      -0.00000001       0.00000000
Na      14.22575369      19.91605516       0.00000000      -0.00000930       0.00000009       0.00000012      -0.00000000      -0.00000001       0.00000000
Na      19.91605516      19.91605516       0.00000000       0.00002132       0.00000180      -0.00000618      -0.00000001      -0.00000001       0.00000000
Na       2.84515074       2.84515074       5.69030148      -0.00099618       0.00000000      -0.00000415       0.00000000       0.00000000       0.00000000
Na       8.53545221       2.84515074       5.69030148      -0.00004250       0.00000000       0.00016126      -0.00000001       0.00000000       0.00000000
Na      14.22575369       2.84515074       5.69030148      -0.00000790       0.00000000      -0.00000088      -0.00000000       0.00000000       0.00000000
Na      19.91605516       2.84515074       5.69030148      -0.00004415       0.00000000      -0.00016262      -0.00000001       0.00000000       0.00000000
Na       2.84515074       8.53545221       5.69030148      -0.00006878       0.00000312       0.00000188       0.00000000      -0.00000001       0.00000000
Na       8.53545221       8.53545221       5.69030148       0.00002229       0.00000252      -0.00000940      -0.00000001      -0.00000001       0.00000000
Na      14.22575369       8.53545221       5.69030148      -0.00000930      -0.00000008      -0.00000012      -0.00000000      -0.00000001       0.00000000
Na      19.91605516       8.53545221       5.69030148       0.00002132      -0.00000179       0.00000618      -0.00000001      -0.00000001       0.00000000
Na       2.84515074      14.22575369       5.69030148      -0.00000690       0.00000000      -0.00000070       0.00000000      -0.00000000       0.00000000
Na       8.53545221      14.22575369       5.69030148       0.00000647       0.00000000       0.00000141      -0.00000001      -0.00000000       0.00000000
Na      14.22575369      14.22575369       5.69030148      -0.00000155       0.00000000       0.00000163      -0.00000000      -0.00000000       0.00000000
Na      19.91605516      14.22575369       5.69030148       0.00000689       0.00000000      -0.00000122      -0.00000001      -0.00000000       0.00000000
Na       2.84515074      19.91605516       5.69030148      -0.00006878      -0.00000311       0.00000188       0.00000000      -0.00000001       0.00000000
Na       8.53545221      19.91605516       5.69030148       0.00002229      -0.00000251      -0.00000940      -0.00000001      -0.00000001       0.00000000
Na      14.22575369      19.91605516       5.69030148      -0.00000930       0.00000009      -0.00000012      -0.00000000      -0.00000001       0.00000000
Na      19.91605516      19.91605516       5.69030148       0.00002132       0.00000180       0.00000618      -0.00000001      -0.00000001       0.00000000
Na       2.84515074       2.84515074      11.38060295      -0.00002150       0.00000000       0.00000091       0.00000000       0.00000000      -0.00000000
Na       8.53545221       2.84515074      11.38060295       0.00001307       0.00000000      -0.00002055      -0.00000001       0.00000000      -0.00000000
Na      14.22575369       2.84515074      11.38060295      -0.00000610       0.00000000      -0.00000128      -0.00000000       0.00000000      -0.00000000
Na      19.91605516       2.84515074      11.38060295       0.00001824       0.00000000       0.00001840      -0.00000001       0.00000000      -0.00000000
Na       2.84515074       8.53545221      11.38060295      -0.00000528      -0.00000094       0.00000067       0.00000000      -0.00000001      -0.00000000
Na       8.53545221       8.53545221      11.38060295       0.00000425       0.00000043       0.00000005      -0.00000001      -0.00000001      -0.00000000
Na      14.22575369       8.53545221      11.38060295      -0.00000398      -0.00000150      -0.00000165      -0.00000000      -0.00000001      -0.00000000
Na      19.91605516       8.53545221      11.38060295       0.00000761      -0.00000197      -0.00000015      -0.00000001      -0.00000001      -0.00000000
Na       2.84515074      14.22575369      11.38060295      -0.00000464       0.00000000      -0.00000034       0.00000000      -0.00000000      -0.00000000
Na       8.53545221      14.22575369      11.38060295       0.00000514       0.00000000       0.00000081      -0.00000001      -0.00000000      -0.00000000
Na      14.22575369      14.22575369      11.38060295      -0.00000414       0.00000000      -0.00000080      -0.00000000      -0.00000000      -0.00000000
Na      19.91605516      14.22575369      11.38060295       0.00000788       0.00000000      -0.00000041      -0.00000001      -0.00000000      -0.00000000
Na       2.84515074      19.91605516      11.38060295      -0.00000528       0.00000095       0.00000067       0.00000000      -0.00000001      -0.00000000
Na       8.53545221      19.91605516      11.38060295       0.00000425      -0.00000042       0.00000005      -0.00000001      -0.00000001      -0.00000000
Na      14.22575369      19.91605516      11.38060295      -0.00000398       0.00000151      -0.00000165      -0.00000000      -0.00000001      -0.00000000
Na      19.91605516      19.91605516      11.38060295       0.00000761       0.00000198      -0.00000015      -0.00000001      -0.00000001      -0.00000000
Na       2.84515074       2.84515074      17.07090443      -0.00002150       0.00000000      -0.00000091       0.00000000       0.00000000       0.00000000
Na       8.53545221       2.84515074      17.07090443       0.00001307       0.00000000       0.00002055      -0.00000001       0.00000000       0.00000000
Na      14.22575369       2.84515074      17.07090443      -0.00000610       0.00000000       0.00000128      -0.00000000       0.00000000       0.00000000
Na      19.91605516       2.84515074      17.07090443       0.00001824       0.00000000      -0.00001841      -0.00000001       0.00000000       0.00000000
Na       2.84515074       8.53545221      17.07090443      -0.00000528      -0.00000094      -0.00000067       0.00000000      -0.00000001       0.00000000
Na       8.53545221       8.53545221      17.07090443       0.00000425       0.00000043      -0.00000006      -0.00000001      -0.00000001       0.00000000
Na      14.22575369       8.53545221      17.07090443      -0.00000398      -0.00000150       0.00000165      -0.00000000      -0.00000001       0.00000000
Na      19.91605516       8.53545221      17.07090443       0.00000761      -0.00000197       0.00000015      -0.00000001      -0.00000001       0.00000000
Na       2.84515074      14.22575369      17.07090443      -0.00000464       0.00000000       0.00000034       0.00000000      -0.00000000       0.00000000
Na       8.53545221      14.22575369      17.07090443       0.00000514       0.00000000      -0.00000082      -0.00000001      -0.00000000       0.00000000
Na      14.22575369      14.22575369      17.07090443      -0.00000414       0.00000000       0.00000080      -0.00000000      -0.00000000       0.00000000
Na      19.91605516      14.22575369      17.07090443       0.00000788       0.00000000       0.00000041      -0.00000001      -0.00000000       0.00000000
Na       2.84515074      19.91605516      17.07090443      -0.00000528       0.00000095      -0.00000067       0.00000000      -0.00000001       0.00000000
Na       8.53545221      19.91605516      17.07090443       0.00000425      -0.00000042      -0.00000006      -0.00000001      -0.00000001       0.00000000
Na      14.22575369      19.91605516      17.07090443      -0.00000398       0.00000151       0.00000165      -0.00000000      -0.00000001       0.00000000
Na      19.91605516      19.91605516      17.07090443       0.00000761       0.00000198       0.00000015      -0.00000001      -0.00000001       0.00000000
Cl       2.85515065       2.84515074       2.84515074      -0.02129673       0.00000000       0.00000000       0.00999991       0.00000000       0.00000000
Cl       8.53545221       2.84515074       2.84515074      -0.00020982       0.00000000       0.00000000      -0.00000001       0.00000000       0.00000000
Cl      14.22575369       2.84515074       2.84515074      -0.00010636       0.00000000       0.00000000      -0.00000000       0.00000000       0.00000000
Cl      19.91605516       2.84515074       2.84515074      -0.00024435       0.00000000       0.00000000      -0.00000001       0.00000000       0.00000000
Cl       2.84515074       8.53545221       2.84515074       0.00005881       0.00002792       0.00000000       0.00000000      -0.00000001       0.00000000
Cl       8.53545221       8.53545221       2.84515074       0.00001399       0.00000333       0.00000000      -0.00000001      -0.00000001       0.00000000
Cl      14.22575369       8.53545221       2.84515074      -0.00000937       0.00000287       0.00000000      -0.00000000      -0.00000001       0.00000000
Cl      19.91605516       8.53545221       2.84515074       0.00005423      -0.00001898       0.00000000      -0.00000001      -0.00000001       0.00000000
Cl       2.84515074      14.22575369       2.84515074       0.00002148       0.00000000       0.00000000       0.00000000      -0.00000000       0.00000000
Cl       8.53545221      14.22575369       2.84515074       0.00001850       0.00000000       0.00000000      -0.00000001      -0.00000000       0.00000000
Cl      14.22575369      14.22575369       2.84515074       0.00001315       0.00000000       0.00000000      -0.00000000      -0.00000000       0.00000000
Cl      19.91605516      14.22575369       2.84515074       0.00002354       0.00000000       0.00000000      -0.00000001      -0.00000000       0.00000000
Cl       2.84515074      19.91605516       2.84515074       0.00005881      -0.00002791       0.00000000       0.00000000      -0.00000001       0.00000000
Cl       8.53545221      19.91605516       2.84515074       0.00001399      -0.00000332       0.00000000      -0.00000001      -0.00000001       0.00000000
Cl      14.22575369      19.91605516       2.84515074      -0.00000937      -0.00000286       0.00000000      -0.00000000      -0.00000001       0.00000000
Cl      19.91605516      19.91605516       2.84515074       0.00005423       0.00001900       0.00000000      -0.00000001      -0.00000001       0.00000000
Cl       2.84515074       2.84515074       8.53545221       0.00005881       0.00000000       0.00002792       0.00000000       0.00000000      -0.00000001
Cl       8.53545221       2.84515074       8.53545221       0.00001399       0.00000000       0.00000333      -0.00000001       0.00000000      -0.00000001
Cl      14.22575369       2.84515074       8.53545221      -0.00000937       0.00000000       0.00000287      -0.00000000       0.00000000      -0.00000001
Cl      19.91605516       2.84515074       8.53545221       0.00005423       0.00000000      -0.00001898      -0.00000001       0.00000000      -0.00000001
Cl       2.84515074       8.53545221       8.53545221       0.00002283      -0.00000262      -0.00000262       0.00000000      -0.00000001      -0.00000001
Cl       8.53545221       8.53545221       8.53545221       0.00000743      -0.00000267      -0.00000267      -0.00000001      -0.00000001      -0.00000001
Cl      14.22575369       8.53545221       8.53545221      -0.00004924       0.00002211       0.00002211      -0.00000000      -0.00000001      -0.00000001
Cl      19.91605516       8.53545221       8.53545221       0.00000937       0.00000101       0.00000101      -0.00000001      -0.00000001      -0.00000001
Cl       2.84515074      14.22575369       8.53545221      -0.00001346       0.00000000       0.00002277       0.00000000      -0.00000000      -0.00000001
Cl       8.53545221      14.22575369       8.53545221       0.00005685       0.00000000      -0.00002908      -0.00000001      -0.00000000      -0.00000001
Cl      14.22575369      14.22575369       8.53545221      -0.00001384       0.00000000      -0.00001668      -0.00000000      -0.00000000      -0.00000001
Cl      19.91605516      14.22575369       8.53545221       0.00002480       0.00000000       0.00000322      -0.00000001      -0.00000000      -0.00000001
Cl       2.84515074      19.91605516       8.53545221       0.00002283       0.00000263      -0.00000262       0.00000000      -0.00000001      -0.00000001
Cl       8.53545221      19.91605516       8.53545221       0.00000743       0.00000268      -0.00000267      -0.00000001      -0.00000001      -0.00000001
Cl      14.22575369      19.91605516       8.53545221      -0.00004924      -0.00002210       0.00002211      -0.00000000      -0.00000001      -0.00000001
Cl      19.91605516      19.91605516       8.53545221       0.00000937      -0.00000100       0.00000101      -0.00000001      -0.00000001      -0.00000001
Cl       2.84515074       2.84515074      14.22575369       0.00002148       0.00000000       0.00000000       0.00000000       0.00000000      -0.00000000
Cl       8.53545221       2.84515074      14.22575369       0.00001850       0.00000000       0.00000000      -0.00000001       0.00000000      -0.00000000
Cl      14.22575369       2.84515074      14.22575369       0.00001315       0.00000000       0.00000000      -0.00000000       0.00000000      -0.00000000
Cl      19.91605516       2.84515074      14.22575369       0.00002354       0.00000000       0.00000000      -0.00000001       0.00000000      -0.00000000
Cl       2.84515074       8.53545221      14.22575369      -0.00001346       0.00002277       0.00000000       0.00000000      -0.00000001      -0.00000000
Cl       8.53545221       8.53545221      14.22575369       0.00005685      -0.00002908       0.00000000      -0.00000001      -0.00000001      -0.00000000
Cl      14.22575369       8.53545221      14.22575369      -0.00001384      -0.00001668       0.00000000      -0.00000000      -0.00000001      -0.00000000
Cl      19.91605516       8.53545221      14.22575369       0.00002480       0.00000322       0.00000000      -0.00000001      -0.00000001      -0.00000000
Cl       2.84515074      14.22575369      14.22575369      -0.00003406       0.00000000       0.00000000       0.00000000      -0.00000000      -0.00000000
Cl       8.53545221      14.22575369      14.22575369       0.00007891       0.00000000       0.00000000      -0.00000001      -0.00000000      -0.00000000
Cl      14.22575369      14.22575369      14.22575369       0.00005241       0.00000000       0.00000000      -0.00000000      -0.00000000      -0.00000000
Cl      19.91605516      14.22575369      14.22575369       0.00000381       0.00000000       0.00000000      -0.00000001      -0.00000000      -0.00000000
Cl       2.84515074      19.91605516      14.22575369      -0.00001346      -0.00002276       0.00000000       0.00000000      -0.00000001      -0.00000000
Cl       8.53545221      19.91605516      14.22575369       0.00005685       0.00002909       0.00000000      -0.00000001      -0.00000001      -0.00000000
Cl      14.22575369      19.91605516      14.22575369      -0.00001384       0.00001669       0.00000000      -0.00000000      -0.00000001      -0.00000000
Cl      19.91605516      19.91605516      14.22575369       0.00002480      -0.00000321       0.00000000      -0.00000001      -0.00000001      -0.00000000
Cl       2.84515074       2.84515074      19.91605516       0.00005881       0.00000000      -0.00002791       0.00000000       0.00000000      -0.00000001
Cl       8.53545221       2.84515074      19.91605516       0.00001399       0.00000000      -0.00000332      -0.00000001       0.00000000      -0.00000001
Cl      14.22575369       2.84515074      19.91605516      -0.00000937       0.00000000      -0.00000286      -0.00000000       0.00000000      -0.00000001
Cl      19.91605516       2.84515074      19.91605516       0.00005423       0.00000000       0.00001900      -0.00000001       0.00000000      -0.00000001
Cl       2.84515074       8.53545221      19.91605516       0.00002283      -0.00000262       0.00000263       0.00000000      -0.00000001      -0.00000001
Cl       8.53545221       8.53545221      19.91605516       0.00000743      -0.00000267       0.00000268      -0.00000001      -0.00000001      -0.00000001
Cl      14.22575369       8.53545221      19.91605516      -0.00004924       0.00002211      -0.00002210      -0.00000000      -0.00000001      -0.00000001
Cl      19.91605516       8.53545221      19.91605516       0.00000937       0.00000101      -0.00000100      -0.00000001      -0.00000001      -0.00000001
Cl       2.84515074      14.22575369      19.91605516      -0.00001346       0.00000000      -0.00002276       0.00000000      -0.00000000      -0.00000001
Cl       8.53545221      14.22575369      19.91605516       0.00005685       0.00000000       0.00002909      -0.00000001      -0.00000000      -0.00000001
Cl      14.22575369      14.22575369      19.91605516      -0.00001384       0.00000000       0.00001669      -0.00000000      -0.00000000      -0.00000001
Cl      19.91605516      14.22575369      19.91605516       0.00002480       0.00000000      -0.00000321      -0.00000001      -0.00000000      -0.00000001
Cl       2.84515074      19.91605516      19.91605516       0.00002283       0.00000263       0.00000263       0.00000000      -0.00000001      -0.00000001
Cl       8.53545221      19.91605516      19.91605516       0.00000743       0.00000268       0.00000268      -0.00000001      -0.00000001      -0.00000001
Cl      14.22575369      19.91605516      19.91605516      -0.00004924      -0.00002210      -0.00002210      -0.00000000      -0.00000001      -0.00000001
Cl      19.91605516      19.91605516      19.91605516       0.00000937      -0.00000100      -0.00000100      -0.00000001      -0.00000001      -0.00000001
Cl       2.84515074       0.00000000       0.00000000       0.00021287      -0.00002862      -0.00002862       0.00000000       0.00000000       0.00000000
Cl       8.53545221       0.00000000       0.00000000      -0.00002913       0.00006825       0.00006825      -0.00000001       0.00000000       0.00000000
Cl      14.22575369       0.00000000       0.00000000      -0.00001232      -0.00001751      -0.00001751      -0.00000000       0.00000000       0.00000000
Cl      19.91605516       0.00000000       0.00000000      -0.00003229      -0.00003670      -0.00003670      -0.00000001       0.00000000       0.00000000
Cl       2.84515074       5.69030148       0.00000000       0.00021287       0.00002862      -0.00002862       0.00000000       0.00000000       0.00000000
Cl       8.53545221       5.69030148       0.00000000      -0.00002913      -0.00006826       0.00006825      -0.00000001       0.00000000       0.00000000
Cl      14.22575369       5.69030148       0.00000000      -0.00001232       0.00001751      -0.00001751      -0.00000000       0.00000000       0.00000000
Cl      19.91605516       5.69030148       0.00000000      -0.00003229       0.00003669      -0.00003670      -0.00000001       0.00000000       0.00000000
Cl       2.84515074      11.38060295       0.00000000       0.00001334       0.00000752      -0.00000988       0.00000000      -0.00000000       0.00000000
Cl       8.53545221      11.38060295       0.00000000       0.00001222       0.00000547       0.00001390      -0.00000001      -0.00000000       0.00000000
Cl      14.22575369      11.38060295       0.00000000      -0.00003330      -0.00000356      -0.00000600      -0.00000000      -0.00000000       0.00000000
Cl      19.91605516      11.38060295       0.00000000       0.00002353      -0.00001556       0.00000486      -0.00000001      -0.00000000       0.00000000
Cl       2.84515074      17.07090443       0.00000000       0.00001334      -0.00000752      -0.00000988       0.00000000       0.00000000       0.00000000
Cl       8.53545221      17.07090443       0.00000000       0.00001222      -0.00000547       0.00001390      -0.00000001       0.00000000       0.00000000
Cl      14.22575369      17.07090443       0.00000000      -0.00003330       0.00000356      -0.00000600      -0.00000000       0.00000000       0.00000000
Cl      19.91605516      17.07090443       0.00000000       0.00002353       0.00001555       0.00000486      -0.00000001       0.00000000       0.00000000
Cl       2.84515074       0.00000000       5.69030148       0.00021287      -0.00002862       0.00002862       0.00000000       0.00000000       0.00000000
Cl       8.53545221       0.00000000       5.69030148      -0.00002913       0.00006825      -0.00006826      -0.00000001       0.00000000       0.00000000
Cl      14.22575369       0.00000000       5.69030148      -0.00001232      -0.00001751       0.00001751      -0.00000000       0.00000000       0.00000000
Cl      19.91605516       0.00000000       5.69030148      -0.00003229      -0.00003670       0.00003669      -0.00000001       0.00000000       0.00000000
Cl       2.84515074       5.69030148       5.69030148       0.00021287       0.00002862       0.00002862       0.00000000       0.00000000       0.00000000
Cl       8.53545221       5.69030148       5.69030148      -0.00002913      -0.00006826      -0.00006826      -0.00000001       0.00000000       0.00000000
Cl      14.22575369       5.69030148       5.69030148      -0.00001232       0.00001751       0.00001751      -0.00000000       0.00000000       0.00000000
Cl      19.91605516       5.69030148       5.69030148      -0.00003229       0.00003669       0.00003669      -0.00000001       0.00000000       0.00000000
Cl       2.84515074      11.38060295       5.69030148       0.00001334       0.00000752       0.00000988       0.00000000      -0.00000000       0.00000000
Cl       8.53545221      11.38060295       5.69030148       0.00001222       0.00000547      -0.00001391      -0.00000001      -0.00000000       0.00000000
Cl      14.22575369      11.38060295       5.69030148      -0.00003330      -0.00000356       0.00000600      -0.00000000      -0.00000000       0.00000000
Cl      19.91605516      11.38060295       5.69030148       0.00002353      -0.00001556      -0.00000487      -0.00000001      -0.00000000       0.00000000
Cl       2.84515074      17.07090443       5.69030148       0.00001334      -0.00000752       0.00000988       0.00000000       0.00000000       0.00000000
Cl       8.53545221      17.07090443       5.69030148       0.00001222      -0.00000547      -0.00001391      -0.00000001       0.00000000       0.00000000
Cl      14.22575369      17.07090443       5.69030148      -0.00003330       0.00000356       0.00000600      -0.00000000       0.00000000       0.00000000
Cl      19.91605516      17.07090443       5.69030148       0.00002353       0.00001555      -0.00000487      -0.00000001       0.00000000       0.00000000
Cl       2.84515074       0.00000000      11.38060295       0.00001334      -0.00000988       0.00000752       0.00000000       0.00000000      -0.00000000
Cl       8.53545221       0.00000000      11.38060295       0.00001222       0.00001390       0.00000547      -0.00000001       0.00000000      -0.00000000
Cl      14.22575369       0.00000000      11.38060295      -0.00003330      -0.00000600      -0.00000356      -0.00000000       0.00000000      -0.00000000
Cl      19.91605516       0.00000000      11.38060295       0.00002353       0.00000486      -0.00001556      -0.00000001       0.00000000      -0.00000000
Cl       2.84515074       5.69030148      11.38060295       0.00001334       0.00000988       0.00000752       0.00000000       0.00000000      -0.00000000
Cl       8.53545221       5.69030148      11.38060295       0.00001222      -0.00001391       0.00000547      -0.00000001       0.00000000      -0.00000000
Cl      14.22575369       5.69030148      11.38060295      -0.00003330       0.00000600      -0.00000356      -0.00000000       0.00000000      -0.00000000
Cl      19.91605516       5.69030148      11.38060295       0.00002353      -0.00000487      -0.00001556      -0.00000001       0.00000000      -0.00000000
Cl       2.84515074      11.38060295      11.38060295      -0.00001717       0.00001567       0.00001567       0.00000000      -0.00000000      -0.00000000
Cl       8.53545221      11.38060295      11.38060295       0.00005517       0.00001671       0.00001671      -0.00000001      -0.00000000      -0.00000000
Cl      14.22575369      11.38060295      11.38060295      -0.00004466      -0.00000962      -0.00000962      -0.00000000      -0.00000000      -0.00000000
Cl      19.91605516      11.38060295      11.38060295       0.00003297      -0.00001465      -0.00001465      -0.00000001      -0.00000000      -0.00000000
Cl       2.84515074      17.07090443      11.38060295      -0.00001717      -0.00001567       0.00001567       0.00000000       0.00000000      -0.00000000
Cl       8.53545221      17.07090443      11.38060295       0.00005517      -0.00001672       0.00001671      -0.00000001       0.00000000      -0.00000000
Cl      14.22575369      17.07090443      11.38060295      -0.00004466       0.00000962      -0.00000962      -0.00000000       0.00000000      -0.00000000
Cl      19.91605516      17.07090443      11.38060295       0.00003297       0.00001465      -0.00001465      -0.00000001       0.00000000      -0.00000000
Cl       2.84515074       0.00000000      17.07090443       0.00001334      -0.00000988      -0.00000752       0.00000000       0.00000000       0.00000000
Cl       8.53545221       0.00000000      17.07090443       0.00001222       0.00001390      -0.00000547      -0.00000001       0.00000000       0.00000000
Cl      14.22575369       0.00000000      17.07090443      -0.00003330      -0.00000600       0.00000356      -0.00000000       0.00000000       0.00000000
Cl      19.91605516       0.00000000      17.07090443       0.00002353       0.00000486       0.00001555      -0.00000001       0.00000000       0.00000000
Cl       2.84515074       5.69030148      17.07090443       0.00001334       0.00000988      -0.00000752       0.00000000       0.00000000       0.00000000
Cl       8.53545221       5.69030148      17.07090443       0.00001222      -0.00001391      -0.00000547      -0.00000001       0.00000000       0.00000000
Cl      14.22575369       5.69030148      17.07090443      -0.00003330       0.00000600       0.00000356      -0.00000000       0.00000000       0.00000000
Cl      19.91605516       5.69030148      17.07090443       0.00002353      -0.00000487       0.00001555      -0.00000001       0.00000000       0.00000000
Cl       2.84515074      11.38060295      17.07090443      -0.00001717       0.00001567      -0.00001567       0.00000000      -0.00000000       0.00000000
Cl       8.53545221      11.38060295      17.07090443       0.00005517       0.00001671      -0.00001672      -0.00000001      -0.00000000       0.00000000
Cl      14.22575369      11.38060295      17.07090443      -0.00004466      -0.00000962       0.00000962      -0.00000000      -0.00000000       0.00000000
Cl      19.91605516      11.38060295      17.07090443       0.00003297      -0.00001465       0.00001465      -0.00000001      -0.00000000       0.00000000
Cl       2.84515074      17.07090443      17.07090443      -0.00001717      -0.00001567      -0.00001567       0.00000000       0.00000000       0.00000000
Cl       8.53545221      17.07090443      17.07090443       0.00005517      -0.00001672      -0.00001672      -0.00000001       0.00000000       0.00000000
Cl      14.22575369      17.07090443      17.07090443      -0.00004466       0.00000962       0.00000962      -0.00000000       0.00000000       0.00000000
Cl      19.91605516      17.07090443      17.07090443       0.00003297       0.00001465       0.00001465      -0.00000001       0.00000000       0.00000000
Cl       0.00000000       2.84515074       0.00000000       0.00061445       0.00000000       0.00052739       0.00000000       0.00000000       0.00000000
Cl       5.69030148       2.84515074       0.00000000       0.00070281       0.00000000      -0.00051220       0.00000000       0.00000000       0.00000000
Cl      11.38060295       2.84515074       0.00000000      -0.00007592       0.00000000       0.00003541      -0.00000000       0.00000000       0.00000000
Cl      17.07090443       2.84515074       0.00000000      -0.00001904       0.00000000      -0.00000548       0.00000000       0.00000000       0.00000000
Cl       0.00000000       8.53545221       0.00000000      -0.00002554       0.00005449       0.00002739       0.00000000      -0.00000001       0.00000000
Cl       5.69030148       8.53545221       0.00000000      -0.00002758      -0.00002512      -0.00000865       0.00000000      -0.00000001       0.00000000
Cl      11.38060295       8.53545221       0.00000000       0.00000345       0.00001850      -0.00001311      -0.00000000      -0.00000001       0.00000000
Cl      17.07090443       8.53545221       0.00000000       0.00002159       0.00001494       0.00002230       0.00000000      -0.00000001       0.00000000
Cl       0.00000000      14.22575369       0.00000000       0.00001026       0.00000000      -0.00000018       0.00000000      -0.00000000       0.00000000
Cl       5.69030148      14.22575369       0.00000000      -0.00003539       0.00000000       0.00001296       0.00000000      -0.00000000       0.00000000
Cl      11.38060295      14.22575369       0.00000000      -0.00001152       0.00000000      -0.00000568      -0.00000000      -0.00000000       0.00000000
Cl      17.07090443      14.22575369       0.00000000      -0.00000700       0.00000000      -0.00000316       0.00000000      -0.00000000       0.00000000
Cl       0.00000000      19.91605516       0.00000000      -0.00002554      -0.00005448       0.00002739       0.00000000      -0.00000001       0.00000000
Cl       5.69030148      19.91605516       0.00000000      -0.00002758       0.00002513      -0.00000865       0.00000000      -0.00000001       0.00000000
Cl      11.38060295      19.91605516       0.00000000       0.00000345      -0.00001849      -0.00001311      -0.00000000      -0.00000001       0.00000000
Cl      17.07090443      19.91605516       0.00000000       0.00002159      -0.00001493       0.00002230       0.00000000      -0.00000001       0.00000000
Cl       0.00000000       2.84515074       5.69030148       0.00061445       0.00000000      -0.00052740       0.00000000       0.00000000       0.00000000
Cl       5.69030148       2.84515074       5.69030148       0.00070281       0.00000000       0.00051219       0.00000000       0.00000000       0.00000000
Cl      11.38060295       2.84515074       5.69030148      -0.00007592       0.00000000      -0.00003542      -0.00000000       0.00000000       0.00000000
Cl      17.07090443       2.84515074       5.69030148      -0.00001904       0.00000000       0.00000547       0.00000000       0.00000000       0.00000000
Cl       0.00000000       8.53545221       5.69030148      -0.00002554       0.00005449      -0.00002740       0.00000000      -0.00000001       0.00000000
Cl       5.69030148       8.53545221       5.69030148      -0.00002758      -0.00002512       0.00000864       0.00000000      -0.00000001       0.00000000
Cl      11.38060295       8.53545221       5.69030148       0.00000345       0.00001850       0.00001310      -0.00000000      -0.00000001       0.00000000
Cl      17.07090443       8.53545221       5.69030148       0.00002159       0.00001494      -0.00002231       0.00000000      -0.00000001       0.00000000
Cl       0.00000000      14.22575369       5.69030148       0.00001026       0.00000000       0.00000017       0.00000000      -0.00000000       0.00000000
Cl       5.69030148      14.22575369       5.69030148      -0.00003539       0.00000000      -0.00001297       0.00000000      -0.00000000       0.00000000
Cl      11.38060295      14.22575369       5.69030148      -0.00001152       0.00000000       0.00000567      -0.00000000      -0.00000000       0.00000000
Cl      17.07090443      14.22575369       5.69030148      -0.00000700       0.00000000       0.00000316       0.00000000      -0.00000000       0.00000000
Cl       0.00000000      19.91605516       5.69030148      -0.00002554      -0.00005448      -0.00002740       0.00000000      -0.00000001       0.00000000
Cl       5.69030148      19.91605516       5.69030148      -0.00002758       0.00002513       0.00000864       0.00000000      -0.00000001       0.00000000
Cl      11.38060295      19.91605516       5.69030148       0.00000345      -0.00001849       0.00001310      -0.00000000      -0.00000001       0.00000000
Cl      17.07090443      19.91605516       5.69030148       0.00002159      -0.00001493      -0.00002231       0.00000000      -0.00000001       0.00000000
Cl       0.00000000       2.84515074      11.38060295      -0.00001899       0.00000000       0.00000566       0.00000000       0.00000000      -0.00000000
Cl       5.69030148       2.84515074      11.38060295      -0.00000220       0.00000000      -0.00003110       0.00000000       0.00000000      -0.00000000
Cl      11.38060295       2.84515074      11.38060295       0.00000941       0.00000000       0.00002418      -0.00000000       0.00000000      -0.00000000
Cl      17.07090443       2.84515074      11.38060295      -0.00002909       0.00000000      -0.00000532       0.00000000       0.00000000      -0.00000000
Cl       0.00000000       8.53545221      11.38060295      -0.00000773       0.00000163      -0.00001653       0.00000000      -0.00000001      -0.00000000
Cl       5.69030148       8.53545221      11.38060295      -0.00001528      -0.00001978      -0.00000293       0.00000000      -0.00000001      -0.00000000
Cl      11.38060295       8.53545221      11.38060295       0.00002212      -0.00000424      -0.00000817      -0.00000000      -0.00000001      -0.00000000
Cl      17.07090443       8.53545221      11.38060295      -0.00001347      -0.00001963       0.00002009       0.00000000      -0.00000001      -0.00000000
Cl       0.00000000      14.22575369      11.38060295       0.00000971       0.00000000       0.00002127       0.00000000      -0.00000000      -0.00000000
Cl       5.69030148      14.22575369      11.38060295      -0.00000858       0.00000000      -0.00001093       0.00000000      -0.00000000      -0.00000000
Cl      11.38060295      14.22575369      11.38060295      -0.00003935       0.00000000       0.00002195      -0.00000000      -0.00000000      -0.00000000
Cl      17.07090443      14.22575369      11.38060295      -0.00000169       0.00000000       0.00004559       0.00000000      -0.00000000      -0.00000000
Cl       0.00000000      19.91605516      11.38060295      -0.00000773      -0.00000162      -0.00001653       0.00000000      -0.00000001      -0.00000000
Cl       5.69030148      19.91605516      11.38060295      -0.00001528       0.00001979      -0.00000293       0.00000000      -0.00000001      -0.00000000
Cl      11.38060295      19.91605516      11.38060295       0.00002212       0.00000425      -0.00000817      -0.00000000      -0.00000001      -0.00000000
Cl      17.07090443      19.91605516      11.38060295      -0.00001347       0.00001964       0.00002009       0.00000000      -0.00000001      -0.00000000
Cl       0.00000000       2.84515074      17.07090443      -0.00001899       0.00000000      -0.00000566       0.00000000       0.00000000       0.00000000
Cl       5.69030148       2.84515074      17.07090443      -0.00000220       0.00000000       0.00003109       0.00000000       0.00000000       0.00000000
Cl      11.38060295       2.84515074      17.07090443       0.00000941       0.00000000      -0.00002419      -0.00000000       0.00000000       0.00000000
Cl      17.07090443       2.84515074      17.07090443      -0.00002909       0.00000000       0.00000531       0.00000000       0.00000000       0.00000000
Cl       0.00000000       8.53545221      17.07090443      -0.00000773       0.00000163       0.00001652       0.00000000      -0.00000001       0.00000000
Cl       5.69030148       8.53545221      17.07090443      -0.00001528      -0.00001978       0.00000293       0.00000000      -0.00000001       0.00000000
Cl      11.38060295       8.53545221      17.07090443       0.00002212      -0.00000424       0.00000817      -0.00000000      -0.00000001       0.00000000
Cl      17.07090443       8.53545221      17.07090443      -0.00001347      -0.00001963      -0.00002010       0.00000000      -0.00000001       0.00000000
Cl       0.00000000      14.22575369      17.07090443       0.00000971       0.00000000      -0.00002128       0.00000000      -0.00000000       0.00000000
Cl       5.69030148      14.22575369      17.07090443      -0.00000858       0.00000000       0.00001093       0.00000000      -0.00000000       0.00000000
Cl      11.38060295      14.22575369      17.07090443      -0.00003935       0.00000000      -0.00002196      -0.00000000      -0.00000000       0.00000000
Cl      17.07090443      14.22575369      17.07090443      -0.00000169       0.00000000      -0.00004559       0.00000000      -0.00000000       0.00000000
Cl       0.00000000      19.91605516      17.07090443      -0.00000773      -0.00000162       0.00001652       0.00000000      -0.00000001       0.00000000
Cl       5.69030148      19.91605516      17.07090443      -0.00001528       0.00001979       0.00000293       0.00000000      -0.00000001       0.00000000
Cl      11.38060295      19.91605516      17.07090443       0.00002212       0.00000425       0.00000817      -0.00000000      -0.00000001       0.00000000
Cl      17.07090443      19.91605516      17.07090443      -0.00001347       0.00001964      -0.00002010       0.00000000      -0.00000001       0.00000000
Cl       0.00000000       0.00000000       2.84515074       0.00061445       0.00052739       0.00000000       0.00000000       0.00000000       0.00000000
Cl       5.69030148       0.00000000       2.84515074       0.00070281      -0.00051220       0.00000000       0.00000000       0.00000000       0.00000000
Cl      11.38060295       0.00000000       2.84515074      -0.00007592       0.00003541       0.00000000      -0.00000000       0.00000000       0.00000000
Cl      17.07090443       0.00000000       2.84515074      -0.00001904      -0.00000548       0.00000000       0.00000000       0.00000000       0.00000000
Cl       0.00000000       5.69030148       2.84515074       0.00061445      -0.00052740       0.00000000       0.00000000       0.00000000       0.00000000
Cl       5.69030148       5.69030148       2.84515074       0.00070281       0.00051219       0.00000000       0.00000000       0.00000000       0.00000000
Cl      11.38060295       5.69030148       2.84515074      -0.00007592      -0.00003542       0.00000000      -0.00000000       0.00000000       0.00000000
Cl      17.07090443       5.69030148       2.84515074      -0.00001904       0.00000547       0.00000000       0.00000000       0.00000000       0.00000000
Cl       0.00000000      11.38060295       2.84515074      -0.00001899       0.00000566       0.00000000       0.00000000      -0.00000000       0.00000000
Cl       5.69030148      11.38060295       2.84515074      -0.00000220      -0.00003110       0.00000000       0.00000000      -0.00000000       0.00000000
Cl      11.38060295      11.38060295       2.84515074       0.00000941       0.00002418       0.00000000      -0.00000000      -0.00000000       0.00000000
Cl      17.07090443      11.38060295       2.84515074      -0.00002909      -0.00000532       0.00000000       0.00000000      -0.00000000       0.00000000
Cl       0.00000000      17.07090443       2.84515074      -0.00001899      -0.00000566       0.00000000       0.00000000       0.00000000       0.00000000
Cl       5.69030148      17.07090443       2.84515074      -0.00000220       0.00003109       0.00000000       0.00000000       0.00000000       0.00000000
Cl      11.38060295      17.07090443       2.84515074       0.00000941      -0.00002419       0.00000000      -0.00000000       0.00000000       0.00000000
Cl      17.07090443      17.07090443       2.84515074      -0.00002909       0.00000531       0.00000000       0.00000000       0.00000000       0.00000000
Cl       0.00000000       0.00000000       8.53545221      -0.00002554       0.00002739       0.00005449       0.00000000       0.00000000      -0.00000001
Cl       5.69030148       0.00000000       8.53545221      -0.00002758      -0.00000865      -0.00002512       0.00000000       0.00000000      -0.00000001
Cl      11.38060295       0.00000000       8.53545221       0.00000345      -0.00001311       0.00001850      -0.00000000       0.00000000      -0.00000001
Cl      17.07090443       0.00000000       8.53545221       0.00002159       0.00002230       0.00001494       0.00000000       0.00000000      -0.00000001
Cl       0.00000000       5.69030148       8.53545221      -0.00002554      -0.00002740       0.00005449       0.00000000       0.00000000      -0.00000001
Cl       5.69030148       5.69030148       8.53545221      -0.00002758       0.00000864      -0.00002512       0.00000000       0.00000000      -0.00000001
Cl      11.38060295       5.69030148       8.53545221       0.00000345       0.00001310       0.00001850      -0.00000000       0.00000000      -0.00000001
Cl      17.07090443       5.69030148       8.53545221       0.00002159      -0.00002231       0.00001494       0.00000000       0.00000000      -0.00000001
Cl       0.00000000      11.38060295       8.53545221      -0.00000773      -0.00001653       0.00000163       0.00000000      -0.00000000      -0.00000001
Cl       5.69030148      11.38060295       8.53545221      -0.00001528      -0.00000293      -0.00001978       0.00000000      -0.00000000      -0.00000001
Cl      11.38060295      11.38060295       8.53545221       0.00002212      -0.00000817      -0.00000424      -0.00000000      -0.00000000      -0.00000001
Cl      17.07090443      11.38060295       8.53545221      -0.00001347       0.00002009      -0.00001963       0.00000000      -0.00000000      -0.00000001
Cl       0.00000000      17.07090443       8.53545221      -0.00000773       0.00001652       0.00000163       0.00000000       0.00000000      -0.00000001
Cl       5.69030148      17.07090443       8.53545221      -0.00001528       0.00000293      -0.00001978       0.00000000       0.00000000      -0.00000001
Cl      11.38060295      17.07090443       8.53545221       0.00002212       0.00000817      -0.00000424      -0.00000000       0.00000000      -0.00000001
Cl      17.07090443      17.07090443       8.53545221      -0.00001347      -0.00002010      -0.00001963       0.00000000       0.00000000      -0.00000001
Cl       0.00000000       0.00000000      14.22575369       0.00001026      -0.00000018       0.00000000       0.00000000       0.00000000      -0.00000000
Cl       5.69030148       0.00000000      14.22575369      -0.00003539       0.00001296       0.00000000       0.00000000       0.00000000      -0.00000000
Cl      11.38060295       0.00000000      14.22575369      -0.00001152      -0.00000568       0.00000000      -0.00000000       0.00000000      -0.00000000
Cl      17.07090443       0.00000000      14.22575369      -0.00000700      -0.00000316       0.00000000       0.00000000       0.00000000      -0.00000000
Cl       0.00000000       5.69030148      14.22575369       0.00001026       0.00000017       0.00000000       0.00000000       0.00000000      -0.00000000
Cl       5.69030148       5.69030148      14.22575369      -0.00003539      -0.00001297       0.00000000       0.00000000       0.00000000      -0.00000000
Cl      11.38060295       5.69030148      14.22575369      -0.00001152       0.00000567       0.00000000      -0.00000000       0.00000000      -0.00000000
Cl      17.07090443       5.69030148      14.22575369      -0.00000700       0.00000316       0.00000000       0.00000000       0.00000000      -0.00000000
Cl       0.00000000      11.38060295      14.22575369       0.00000971       0.00002127       0.00000000       0.00000000      -0.00000000      -0.00000000
Cl       5.69030148      11.38060295      14.22575369      -0.00000858      -0.00001093       0.00000000       0.00000000      -0.00000000      -0.00000000
Cl      11.38060295      11.38060295      14.22575369      -0.00003935       0.00002195       0.00000000      -0.00000000      -0.00000000      -0.00000000
Cl      17.07090443      11.38060295      14.22575369      -0.00000169       0.00004559       0.00000000       0.00000000      -0.00000000      -0.00000000
Cl       0.00000000      17.07090443      14.22575369       0.00000971      -0.00002128       0.00000000       0.00000000       0.00000000      -0.00000000
Cl       5.69030148      17.07090443      14.22575369      -0.00000858       0.00001093       0.00000000       0.00000000       0.00000000      -0.00000000
Cl      11.38060295      17.07090443      14.22575369      -0.00003935      -0.00002196       0.00000000      -0.00000000       0.00000000      -0.00000000
Cl      17.07090443      17.07090443      14.22575369      -0.00000169      -0.00004559       0.00000000       0.00000000       0.00000000      -0.00000000
Cl       0.00000000       0.00000000      19.91605516      -0.00002554       0.00002739      -0.00005448       0.00000000       0.00000000      -0.00000001
Cl       5.69030148       0.00000000      19.91605516      -0.00002758      -0.00000865       0.00002513       0.00000000       0.00000000      -0.00000001
Cl      11.38060295       0.00000000      19.91605516       0.00000345      -0.00001311      -0.00001849      -0.00000000       0.00000000      -0.00000001
Cl      17.07090443       0.00000000      19.91605516       0.00002159       0.00002230      -0.00001493       0.00000000       0.00000000      -0.00000001
Cl       0.00000000       5.69030148      19.91605516      -0.00002554      -0.00002740      -0.00005448       0.00000000       0.00000000      -0.00000001
Cl       5.69030148       5.69030148      19.91605516      -0.00002758       0.00000864       0.00002513       0.00000000       0.00000000      -0.00000001
Cl      11.38060295       5.69030148      19.91605516       0.00000345       0.00001310      -0.00001849      -0.00000000       0.00000000      -0.00000001
Cl      17.07090443       5.69030148      19.91605516       0.00002159      -0.00002231      -0.00001493       0.00000000       0.00000000      -0.00000001
Cl       0.00000000      11.38060295      19.91605516      -0.00000773      -0.00001653      -0.00000162       0.00000000      -0.00000000      -0.00000001
Cl       5.69030148      11.38060295      19.91605516      -0.00001528      -0.00000293       0.00001979       0.00000000      -0.00000000      -0.00000001
Cl      11.38060295      11.38060295      19.91605516       0.00002212      -0.00000817       0.00000425      -0.00000000      -0.00000000      -0.00000001
Cl      17.07090443      11.38060295      19.91605516      -0.00001347       0.00002009       0.00001964       0.00000000      -0.00000000      -0.00000001
Cl       0.00000000      17.07090443      19.91605516      -0.00000773       0.00001652      -0.00000162       0.00000000       0.00000000      -0.00000001
Cl       5.69030148      17.07090443      19.91605516      -0.00001528       0.00000293       0.00001979       0.00000000       0.00000000      -0.00000001
Cl      11.38060295      17.07090443      19.91605516       0.00002212       0.00000817       0.00000425      -0.00000000       0.00000000      -0.00000001
Cl      17.07090443      17.07090443      19.91605516      -0.00001347      -0.00002010       0.00001964       0.00000000       0.00000000      -0.00000001
