C 
 1.0000000000000000
    17.2643840809999993    0.0000000000000000    0.0000000000000000
    -8.6321920404999979   14.9513951948376622    0.0000000000000000
     0.0000000000000000    0.0000000000000000   40.0000000000000000
 C  
  98
Direct
  0.0000000000000000  0.0000000000000000  0.0000000000000000
  0.1428571428571428  0.0000000000000000  0.0000000000000000
  0.2857142857142857  0.0000000000000000  0.0000000000000000
  0.4285714285714285  0.0000000000000000  0.0000000000000000
  0.5714285714285714  0.0000000000000000  0.0000000000000000
  0.7142857142857142  0.0000000000000000  0.0000000000000000
  0.8571428571428571  0.0000000000000000  0.0000000000000000
  0.0000000000000000  0.1428571428571429  0.0000000000000000
  0.1428571428571429  0.1428571428571429  0.0000000000000000
  0.2857142857142857  0.1428571428571429  0.0000000000000000
  0.4285714285714285  0.1428571428571429  0.0000000000000000
  0.5714285714285714  0.1428571428571429  0.0000000000000000
  0.7142857142857142  0.1428571428571429  0.0000000000000000
  0.8571428571428571  0.1428571428571429  0.0000000000000000
  0.0000000000000000  0.2857142857142858  0.0000000000000000
  0.1428571428571429  0.2857142857142858  0.0000000000000000
  0.2857142857142858  0.2857142857142858  0.0000000000000000
  0.4285714285714285  0.2857142857142858  0.0000000000000000
  0.5714285714285714  0.2857142857142858  0.0000000000000000
  0.7142857142857142  0.2857142857142858  0.0000000000000000
  0.8571428571428571  0.2857142857142858  0.0000000000000000
  0.0000000000000000  0.4285714285714285  0.0000000000000000
  0.1428571428571428  0.4285714285714285  0.0000000000000000
  0.2857142857142857  0.4285714285714285  0.0000000000000000
  0.4285714285714285  0.4285714285714285  0.0000000000000000
  0.5714285714285714  0.4285714285714285  0.0000000000000000
  0.7142857142857142  0.4285714285714285  0.0000000000000000
  0.8571428571428571  0.4285714285714285  0.0000000000000000
  0.0000000000000001  0.5714285714285715  0.0000000000000000
  0.1428571428571429  0.5714285714285715  0.0000000000000000
  0.2857142857142858  0.5714285714285715  0.0000000000000000
  0.4285714285714285  0.5714285714285715  0.0000000000000000
  0.5714285714285715  0.5714285714285715  0.0000000000000000
  0.7142857142857142  0.5714285714285715  0.0000000000000000
  0.8571428571428571  0.5714285714285715  0.0000000000000000
  0.0000000000000001  0.7142857142857143  0.0000000000000000
  0.1428571428571429  0.7142857142857143  0.0000000000000000
  0.2857142857142858  0.7142857142857143  0.0000000000000000
  0.4285714285714286  0.7142857142857143  0.0000000000000000
  0.5714285714285715  0.7142857142857143  0.0000000000000000
  0.7142857142857142  0.7142857142857143  0.0000000000000000
  0.8571428571428572  0.7142857142857143  0.0000000000000000
  0.0000000000000000  0.8571428571428571  0.0000000000000000
  0.1428571428571428  0.8571428571428571  0.0000000000000000
  0.2857142857142856  0.8571428571428571  0.0000000000000000
  0.4285714285714285  0.8571428571428571  0.0000000000000000
  0.5714285714285714  0.8571428571428571  0.0000000000000000
  0.7142857142857142  0.8571428571428571  0.0000000000000000
  0.8571428571428571  0.8571428571428571  0.0000000000000000
  0.0476190476190476  0.0952380952380952  0.0000000000000000
  0.1904761904761905  0.0952380952380952  0.0000000000000000
  0.3333333333333333  0.0952380952380952  0.0000000000000000
  0.4761904761904762  0.0952380952380952  0.0000000000000000
  0.6190476190476190  0.0952380952380952  0.0000000000000000
  0.7619047619047619  0.0952380952380952  0.0000000000000000
  0.9047619047619047  0.0952380952380952  0.0000000000000000
  0.0476190476190476  0.2380952380952381  0.0000000000000000
  0.1904761904761905  0.2380952380952381  0.0000000000000000
  0.3333333333333333  0.2380952380952381  0.0000000000000000
  0.4761904761904762  0.2380952380952381  0.0000000000000000
  0.6190476190476190  0.2380952380952381  0.0000000000000000
  0.7619047619047619  0.2380952380952381  0.0000000000000000
  0.9047619047619047  0.2380952380952381  0.0000000000000000
  0.0476190476190476  0.3809523809523809  0.0000000000000000
  0.1904761904761905  0.3809523809523809  0.0000000000000000
  0.3333333333333333  0.3809523809523809  0.0000000000000000
  0.4761904761904762  0.3809523809523809  0.0000000000000000
  0.6190476190476190  0.3809523809523809  0.0000000000000000
  0.7619047619047620  0.3809523809523809  0.0000000000000000
  0.9047619047619047  0.3809523809523809  0.0000000000000000
  0.0476190476190477  0.5238095238095238  0.0000000000000000
  0.1904761904761905  0.5238095238095238  0.0000000000000000
  0.3333333333333334  0.5238095238095238  0.0000000000000000
  0.4761904761904762  0.5238095238095238  0.0000000000000000
  0.6190476190476191  0.5238095238095238  0.0000000000000000
  0.7619047619047619  0.5238095238095238  0.0000000000000000
  0.9047619047619047  0.5238095238095238  0.0000000000000000
  0.0476190476190476  0.6666666666666666  0.0000000000000000
  0.1904761904761905  0.6666666666666666  0.0000000000000000
  0.3333333333333333  0.6666666666666666  0.0000000000000000
  0.4761904761904762  0.6666666666666666  0.0000000000000000
  0.6190476190476190  0.6666666666666666  0.0000000000000000
  0.7619047619047619  0.6666666666666666  0.0000000000000000
  0.9047619047619047  0.6666666666666666  0.0000000000000000
  0.0476190476190477  0.8095238095238096  0.0000000000000000
  0.1904761904761905  0.8095238095238096  0.0000000000000000
  0.3333333333333334  0.8095238095238096  0.0000000000000000
  0.4761904761904763  0.8095238095238096  0.0000000000000000
  0.6190476190476191  0.8095238095238096  0.0000000000000000
  0.7619047619047620  0.8095238095238096  0.0000000000000000
  0.9047619047619048  0.8095238095238096  0.0000000000000000
  0.0476190476190477  0.9523809523809523  0.0000000000000000
  0.1904761904761905  0.9523809523809523  0.0000000000000000
  0.3333333333333334  0.9523809523809523  0.0000000000000000
  0.4761904761904762  0.9523809523809523  0.0000000000000000
  0.6190476190476191  0.9523809523809523  0.0000000000000000
  0.7619047619047620  0.9523809523809523  0.0000000000000000
  0.9047619047619047  0.9523809523809523  0.0000000000000000
