Se Sn
 1.0000000000000000
    11.5161414200000003    0.0000000000000000    0.0000000000000000
     0.0000000000000000    4.1740891400000013    0.0000000000000000
     0.0000000000000000    0.0000000000000000    4.3611038799999999
 Se  Sn 
   4   4
Direct
  0.3574658800000000  0.2500000000000000  0.0242733200000000
  0.6425341200000000  0.7500000000000000  0.9757266799999998
  0.1425341200000000  0.7500000000000000  0.5242733200000000
  0.8574658800000000  0.2500000000000000  0.4757266800000000
  0.6186710500000000  0.2500000000000000  0.4086253599999999
  0.3813289500000000  0.7500000000000000  0.5913746399999998
  0.8813289500000001  0.7500000000000000  0.9086253600000000
  0.1186710500000000  0.2500000000000000  0.0913746400000000
