256
Lattice="23.03228284 0.0 0.0 0.0 16.696356560000005 0.0 0.0 0.0 17.44441552" Properties=species:S:1:pos:R:3:forces:R:3 mlfcs_configuration_id=0 mlfcs_sampling_method=gaussian pbc="T T T"
Se       4.12004767       1.03352000       0.11368488      -0.03621674       0.05755810      -0.04943987
Se      15.64254756       1.02440949       0.09315857      -0.02876295       0.08311091       0.03645468
Se       4.11827890       5.21484655       0.10601236       0.00461926       0.03036699       0.02024606
Se      15.62461148       5.22680296       0.11395829       0.06625125      -0.03959321      -0.05911770
Se       4.11766080       9.40337053       0.11085546      -0.00773026      -0.03938187      -0.01924067
Se      15.62454899       9.39578563       0.09659154       0.09869936      -0.00398876       0.02870161
Se       4.12578500      13.56568800       0.10433175      -0.02710767      -0.01172639       0.01939262
Se      15.62633262      13.57841267       0.10463507      -0.03153187      -0.04114266       0.00177660
Se       4.11271722       1.04039850       4.47260734      -0.06276285       0.02238020      -0.04058695
Se      15.63679636       1.04804716       4.47159246      -0.01677207      -0.01772976      -0.04604403
Se       4.13841697       5.21394483       4.46216182      -0.13423613       0.05095423       0.02543008
Se      15.62500419       5.22416877       4.47857397       0.00536873      -0.02078217      -0.05182838
Se       4.11586102       9.38369655       4.45903944      -0.00548012       0.03822063       0.02277758
Se      15.63964784       9.39953066       4.47271579       0.00286114      -0.01888512       0.00176682
Se       4.11034540      13.56850887       4.46845111       0.02365262      -0.05785571       0.02662703
Se      15.63532880      13.57490155       4.46952020       0.02588389      -0.07701674      -0.05442815
Se       4.12378963       1.04459563       8.83127932      -0.05630513      -0.03721615       0.03219905
Se      15.63945480       1.02934828       8.82519142      -0.08039966       0.07407066       0.04951678
Se       4.11229677       5.21162020       8.82563671       0.00808020       0.06251880       0.06288920
Se      15.64809133       5.20935067       8.83807091      -0.09933675       0.04410650      -0.03530176
Se       4.10017180       9.38874927       8.83001566       0.09512422      -0.01473184      -0.00089630
Se      15.63900414       9.39921038       8.83632160      -0.01557244      -0.03029472      -0.01776495
Se       4.11351324      13.56156374       8.83696789      -0.02134711       0.00413195      -0.03602750
Se      15.63122887      13.55343040       8.81705526       0.05646042       0.05180937       0.01529123
Se       4.10780597       1.04889145      13.19091627       0.04085729       0.00483697      -0.04061457
Se      15.64004677       1.03964731      13.19107741      -0.03572380       0.01858912       0.01531388
Se       4.12325640       5.21491551      13.19405976      -0.03222127       0.03420609      -0.01683121
Se      15.62652266       5.21437844      13.18567463       0.10149500       0.00061184       0.02638991
Se       4.10504210       9.39696784      13.18479799       0.03860066      -0.03131201       0.04252147
Se      15.63326686       9.39690559      13.19395732       0.01980812      -0.05350940      -0.03681012
Se       4.12365435      13.56520240      13.18525903      -0.00138934      -0.02760417       0.04177138
Se      15.63234473      13.54931391      13.17502088      -0.05620984       0.08088167       0.05177021
Se       7.38665967       3.12099194       4.25956505       0.11114558       0.03193472      -0.00093493
Se      18.90697329       3.12718278       4.26855959       0.05439390      -0.00877208      -0.02010127
Se       7.39632402       7.31242870       4.24623113       0.01501622      -0.05984348       0.03190320
Se      18.91397371       7.29555333       4.25217698       0.05941267       0.02101741       0.00718610
Se       7.40828974      11.46186948       4.25991155      -0.04620299       0.09646011      -0.01502752
Se      18.91840544      11.47320119       4.24110673      -0.01296758       0.02243556       0.02517928
Se       7.40060796      15.64793690       4.25789407      -0.04559994       0.02802781      -0.07496010
Se      18.91624660      15.66924962       4.25317375       0.02581606      -0.06570983       0.01655416
Se       7.38965169       3.13275716       8.61887116       0.05790668      -0.03568514       0.02054748
Se      18.92961996       3.13931552       8.62023990      -0.07006456      -0.03563231       0.01977813
Se       7.41451969       7.29316592       8.61027367      -0.05066240       0.05317373       0.02237616
Se      18.90676232       7.30115545       8.60290433       0.05812838       0.03092642       0.08311226
Se       7.40623817      11.47692046       8.60196313      -0.09646757       0.01497308       0.09883303
Se      18.90587229      11.48227783       8.62505245       0.01747341      -0.01891169      -0.04451158
Se       7.41985397      15.68237045       8.62081528      -0.11426806      -0.14699221      -0.00419705
Se      18.90613270      15.63191137       8.61934830       0.05630585       0.07829262      -0.03928706
Se       7.39175725       3.12681084      12.97165410       0.03846821      -0.01773089       0.01789577
Se      18.91462017       3.14162421      12.97934555       0.04528175      -0.03131545      -0.00769799
Se       7.39830031       7.29469701      12.96102824       0.04071167       0.04547793       0.07181114
Se      18.91116500       7.30451572      12.99545437      -0.05036153      -0.01470438      -0.03435129
Se       7.40118941      11.48897008      12.97278211      -0.00515414      -0.05211246       0.03116088
Se      18.90417864      11.46949152      12.97052281       0.06104505       0.04046895       0.06656481
Se       7.42117136      15.64501796      12.98615996      -0.02729174       0.00640543      -0.01678634
Se      18.90699881      15.66254756      12.98162458       0.03406926      -0.07232165       0.00621787
Se       7.39832028       3.13055678      17.33233107       0.00060498      -0.01789543       0.05319332
Se      18.92048880       3.12641457      17.32662289      -0.04315551       0.05880233       0.03823497
Se       7.38710729       7.30677943      17.35466986       0.07957192       0.00623748      -0.07014678
Se      18.91762800       7.30386717      17.34173721      -0.00815824       0.01325158      -0.01477246
Se       7.41294668      11.48133651      17.33476968      -0.10829717      -0.01080125       0.02025730
Se      18.92709097      11.48343025      17.35423651      -0.06646113      -0.00080611      -0.04453356
Se       7.40171901      15.64098714      17.32519736      -0.07091048       0.02417658       0.06688341
Se      18.93253736      15.67046849      17.33708376      -0.16942728      -0.11377397       0.00217088
Se       1.63798408       3.14557885       2.27566185       0.02307125      -0.07610310       0.05361547
Se      13.14901010       3.13739768       2.28278626       0.06031580       0.02535675       0.03357374
Se       1.64176473       7.30341912       2.29010805      -0.02149640      -0.00956167       0.00330321
Se      13.17203219       7.30595940       2.29317170      -0.03468193       0.01285723      -0.01336991
Se       1.62131423      11.47865550       2.27830001       0.08457074      -0.01157636       0.05641760
Se      13.14576924      11.47036116       2.28339107       0.09644419       0.02843218      -0.00368873
Se       1.65097498      15.63996790       2.28703862      -0.11278249       0.05163894       0.03457188
Se      13.15311568      15.64995510       2.29675989       0.03708015       0.02199045      -0.07374786
Se       1.64719711       3.14433839       6.64629113      -0.14962877      -0.08140282       0.01263578
Se      13.15099795       3.12872582       6.65026116       0.05557599       0.01195284       0.01780111
Se       1.64358169       7.29420967       6.64874109      -0.05698927       0.04951002      -0.00540455
Se      13.16023965       7.33022829       6.66660464      -0.00831988      -0.10940989      -0.05892888
Se       1.63328352      11.47626886       6.63320177       0.06136139       0.00561830       0.05436756
Se      13.15205030      11.48229874       6.65989473       0.08695301      -0.03190151      -0.06422436
Se       1.63452511      15.64669036       6.62636330       0.06670574       0.00620935       0.04528048
Se      13.15633071      15.64260768       6.64254180       0.00275148       0.06247668      -0.00671970
Se       1.63304734       3.13002178      10.99136279       0.03165526       0.02014432       0.01612362
Se      13.14328692       3.15225688      10.99606584       0.03819239      -0.09992030       0.06839570
Se       1.63084810       7.32342268      11.03799074      -0.00340491      -0.09270750      -0.11252745
Se      13.14624171       7.30137106      11.01235562       0.08417739       0.01432266      -0.00573395
Se       1.65910293      11.46927412      11.00648729      -0.15099589       0.01823786       0.02033120
Se      13.16573075      11.48349035      11.00517851      -0.04552764      -0.00125050       0.03214229
Se       1.64047772      15.63948287      11.00655833       0.00714718       0.05685553      -0.03673652
Se      13.15529350      15.65555353      11.00338680       0.04178422      -0.02999969       0.02615145
Se       1.64653134       3.14109157      15.37159824      -0.01155684      -0.01721704       0.02338552
Se      13.16147494       3.13149596      15.37004479      -0.01294695      -0.01169646      -0.00607814
Se       1.63460037       7.30821849      15.36907108       0.00555487      -0.02882321      -0.02507561
Se      13.17888905       7.32078710      15.37390241      -0.08536900      -0.02817005      -0.00434023
Se       1.63418538      11.46801857      15.38195538       0.08050356       0.07661039      -0.02559935
Se      13.16058486      11.48394412      15.35259809      -0.02795332       0.01639151       0.08258827
Se       1.65109034      15.65777603      15.35893964      -0.08569582      -0.01602535       0.05735133
Se      13.15324212      15.65586900      15.37056862      -0.00439658      -0.00950491      -0.04319625
Se       9.87214949       1.04288496       2.07249560      -0.03996255       0.01543354       0.00848012
Se      21.39273825       1.05863476       2.04934878       0.03094602      -0.07150706       0.04819584
Se       9.87270270       5.21977410       2.07797531      -0.06676122      -0.01057628      -0.02156776
Se      21.38749348       5.20044176       2.07829532       0.02743661       0.03912240      -0.01731983
Se       9.89234471       9.37675950       2.08365365      -0.05139638       0.04693075      -0.02765522
Se      21.38792737       9.39148488       2.06448638      -0.00988770      -0.01561414       0.05260291
Se       9.87172664      13.57918770       2.08084192       0.02253296      -0.03227753      -0.05686272
Se      21.40853574      13.57796138       2.07940624      -0.09342446      -0.01457313      -0.07057306
Se       9.89251055       1.04830977       6.44439913      -0.13633986       0.01722530      -0.04751363
Se      21.38824692       1.04458530       6.42914501      -0.05403995      -0.00078999       0.04907349
Se       9.88496704       5.20622594       6.44394275      -0.04712106       0.02222780      -0.03163377
Se      21.38930611       5.22972145       6.44362794       0.06996956      -0.08016273      -0.02613402
Se       9.89327767       9.39940587       6.42039885      -0.07685491      -0.03518620       0.02634273
Se      21.39054309       9.38037805       6.43093645      -0.04304387       0.03740895       0.04654327
Se       9.89018349      13.57256260       6.42912994      -0.06440188       0.01480206       0.00723796
Se      21.38107545      13.56651508       6.42395365       0.05108393      -0.00080686       0.02797846
Se       9.86835980       1.04703993      10.80877625       0.03507959      -0.02333572      -0.04332382
Se      21.39730024       1.02100694      10.80026680      -0.05228856       0.09005883      -0.09372025
Se       9.87579154       5.22214788      10.81338523      -0.01839780       0.01070319      -0.03678527
Se      21.37058024       5.21209794      10.80313219       0.09895811       0.01348195      -0.04472960
Se       9.85925526       9.40685761      10.80090670       0.05544898      -0.04178970      -0.03398721
Se      21.39967847       9.38638868      10.80536077      -0.05632681       0.01012837      -0.05312635
Se       9.88575592      13.56851604      10.79956714      -0.05195495      -0.01263375       0.00978101
Se      21.39391606      13.55755381      10.79574784       0.06387518       0.00900875       0.00876924
Se       9.87354598       1.04775378      15.16832525       0.03885620       0.00675087      -0.03341837
Se      21.38062726       1.04266975      15.17314156       0.04539586       0.02169397      -0.08099801
Se       9.86763532       5.20978648      15.16035007      -0.01545652       0.02251199       0.01381089
Se      21.39965648       5.21812324      15.17161662      -0.06493175       0.04530499      -0.08051595
Se       9.88363915       9.40051632      15.16386817      -0.01666460      -0.03656890      -0.05267637
Se      21.41448916       9.39004650      15.13829179      -0.12730763       0.00632507       0.04611269
Se       9.89111375      13.56161026      15.15940581      -0.05426706       0.01400068      -0.02542479
Se      21.40430813      13.55016466      15.14581054      -0.11316425       0.07112826       0.03099528
Sn       7.10906339       1.03597848       1.78677591       0.05029947       0.02843845      -0.05434198
Sn      18.64645947       1.04668258       1.76825188      -0.03772763       0.03670302       0.06195535
Sn       7.10197514       5.21855251       1.77766178       0.08779054      -0.01885541       0.00834889
Sn      18.64581145       5.22502851       1.78376196      -0.02253255      -0.04509490       0.00742813
Sn       7.13267750       9.39439023       1.78768019       0.03569744      -0.01378807       0.01359832
Sn      18.63417086       9.39030200       1.78434730       0.05069147      -0.01427622       0.02463443
Sn       7.13328146      13.56224985       1.78759121      -0.05569698       0.00524270      -0.03290467
Sn      18.63855920      13.56501184       1.79067473       0.06015635       0.03342585       0.00175521
Sn       7.10514557       1.03095512       6.12866157       0.10466398       0.08531892       0.05808698
Sn      18.61788143       1.03713719       6.15097776       0.08015411       0.02132375      -0.03748906
Sn       7.12222733       5.21998688       6.15437560       0.01675212      -0.03887415      -0.04263241
Sn      18.65449445       5.21731760       6.15701928      -0.06685945       0.00688263      -0.02206753
Sn       7.12599744       9.38372414       6.13753942       0.04863970       0.00436501       0.03172999
Sn      18.62641223       9.38321678       6.13990326       0.10696265      -0.01664289      -0.02610013
Sn       7.13311202      13.58339496       6.12966161       0.02301302      -0.10840360       0.06616449
Sn      18.64514587      13.55578182       6.14823039      -0.04272561       0.04971294      -0.06682050
Sn       7.12376531       1.02561078      10.51387027      -0.03002097       0.10023822      -0.00410139
Sn      18.63516759       1.03858084      10.49388978       0.01597617       0.00238732       0.02077458
Sn       7.11853334       5.22228788      10.50269486       0.05714838      -0.03229691       0.00913984
Sn      18.64450421       5.22162820      10.51779392      -0.07965825       0.00240417      -0.04190181
Sn       7.12164831       9.37732954      10.51525953      -0.02656442       0.04628638      -0.05838139
Sn      18.63790271       9.40324404      10.50842107       0.03146652      -0.05219407      -0.00981210
Sn       7.12376480      13.56967502      10.52409743       0.07467329      -0.02799896      -0.08592318
Sn      18.66198740      13.56688107      10.50618921      -0.10237915      -0.02283778       0.07062827
Sn       7.13583857       1.03546323      14.86902189      -0.05757270       0.02142605      -0.00298235
Sn      18.64095896       1.04705892      14.85735749      -0.02173090       0.02477820       0.00671423
Sn       7.10918050       5.19727914      14.85451734       0.07576135       0.05162338      -0.00072142
Sn      18.63663084       5.21507706      14.88506349       0.05966233      -0.01766310      -0.01786800
Sn       7.13613611       9.38247721      14.86916827      -0.03901765      -0.00668144      -0.05664305
Sn      18.63714681       9.38925448      14.86754444       0.06034555       0.03664064      -0.01022186
Sn       7.13126788      13.56279467      14.87632970       0.02646303       0.00947862      -0.02233659
Sn      18.62979821      13.56625065      14.89166792       0.10342804      -0.01477135      -0.11907318
Sn       4.39404178       3.14529655       2.58028334      -0.01623714      -0.07792251       0.03411496
Sn      15.91376018       3.13039658       2.57766406      -0.02812589       0.03105563       0.04751421
Sn       4.38401616       7.30935656       2.57085276       0.03737255      -0.01620832       0.02639055
Sn      15.91460826       7.31590642       2.58303345       0.01149477      -0.06795735       0.01274026
Sn       4.38894850      11.48368234       2.57628141      -0.02897222      -0.02532150       0.00419690
Sn      15.91730788      11.46082863       2.57601206      -0.09076312       0.09850203       0.01679467
Sn       4.37190286      15.63828122       2.59300676       0.13566503       0.07519869      -0.03408276
Sn      15.91690425      15.64603703       2.56434310      -0.07981483       0.01984072       0.05231483
Sn       4.36216570       3.12552945       6.96467617       0.18696053      -0.00834190      -0.12625734
Sn      15.91230125       3.12536869       6.94512282      -0.03973077       0.02368880      -0.00994739
Sn       4.37620140       7.30208032       6.94146679       0.07636615       0.00437546      -0.03778924
Sn      15.90709140       7.31296161       6.94391847       0.00654450      -0.05592946       0.03749155
Sn       4.39849424      11.47225897       6.94945017      -0.04130157       0.03379804      -0.01465475
Sn      15.92424177      11.46944119       6.93159506      -0.10301198       0.03680180       0.02332623
Sn       4.40516883      15.65131839       6.95451023      -0.09385780      -0.01426429      -0.02423628
Sn      15.90352705      15.66778228       6.94178687      -0.00532315      -0.09086088      -0.03260291
Sn       4.39439327       3.14661159      11.29795819      -0.03009841      -0.06787253       0.02999264
Sn      15.89854118       3.12647877      11.30609924      -0.00119614       0.01100205      -0.04985442
Sn       4.37615339       7.31142826      11.29618818       0.01679451      -0.00541300       0.03591479
Sn      15.91943053       7.28111095      11.29371024      -0.08915172       0.08890209       0.01534562
Sn       4.37494630      11.47088039      11.30405256       0.15022966       0.01327162      -0.02442660
Sn      15.90616014      11.47660891      11.29998405       0.04662664      -0.00878586      -0.02352367
Sn       4.39384487      15.64314647      11.30864439      -0.04845616       0.05689130      -0.00914297
Sn      15.91457906      15.65708221      11.30714123      -0.01390962      -0.06140892      -0.02533110
Sn       4.39477516       3.15131514      15.66180883       0.00223202      -0.12569408       0.01187156
Sn      15.90488157       3.12342913      15.65235715       0.01231185       0.02409033       0.06542664
Sn       4.37936627       7.29616558      15.66197297       0.02013913       0.07045390       0.00927363
Sn      15.91129536       7.30556497      15.65502442       0.05673690      -0.00364889       0.02387021
Sn       4.40081283      11.48653682      15.66108329      -0.06787332      -0.03570173       0.00595627
Sn      15.90142324      11.48462697      15.66455951       0.03572252       0.02079387      -0.02716125
Sn       4.37732971      15.65255203      15.66530013       0.10502793       0.03593379      -0.01445698
Sn      15.89895546      15.65513026      15.64813155       0.00114206      -0.03637636      -0.00385515
Sn      10.16324356       3.14344391       3.96040631      -0.11957145      -0.04878666      -0.00971737
Sn      21.66965766       3.10686519       3.95136801      -0.06207931       0.04647933       0.03659991
Sn      10.14694390       7.29433222       3.97007545      -0.00222095       0.02799652       0.00051544
Sn      21.68599608       7.29328740       3.95455685      -0.09468267       0.05118412      -0.00401909
Sn      10.15223618      11.49525385       3.95070774       0.03912328      -0.07427580       0.03695399
Sn      21.66851348      11.49735568       3.94641389      -0.00108397      -0.08680825       0.04124850
Sn      10.13707100      15.64899576       3.95772560       0.10810532       0.05789651       0.04693263
Sn      21.67414913      15.65564843       3.94518186      -0.05438960       0.04082089       0.04577345
Sn      10.15503580       3.12518902       8.33677983      -0.07224366       0.00563627      -0.00466756
Sn      21.65974724       3.12459826       8.32944668       0.05083523       0.01402134      -0.04507330
Sn      10.15751096       7.30953454       8.30717939       0.03135014       0.00443830       0.01584902
Sn      21.67140346       7.29471047       8.32638812      -0.06033384       0.07140809      -0.00914752
Sn      10.13564435      11.48360591       8.31596937       0.07035864       0.00621282       0.00855364
Sn      21.65319677      11.48628089       8.32645181       0.01570568      -0.06072349      -0.06505701
Sn      10.14374193      15.66774362       8.31962884       0.11430082      -0.04075080       0.00597999
Sn      21.66634419      15.65592096       8.31783870      -0.01593879      -0.01136528      -0.03783007
Sn      10.15459306       3.12562989      12.68102286      -0.02033500       0.06741472       0.04607247
Sn      21.67964954       3.12055855      12.66101144      -0.05454409       0.00096978       0.07747781
Sn      10.16599106       7.33054683      12.68108655      -0.05982180      -0.08151072       0.00787332
Sn      21.64665473       7.30194871      12.68227701       0.06414541      -0.00320594       0.04275856
Sn      10.14798246      11.46800881      12.69093485      -0.00115332       0.07413634      -0.01951113
Sn      21.67126819      11.46419863      12.69213121      -0.06873575       0.04076647       0.01563789
Sn      10.17040854      15.65495143      12.68176599      -0.01659530      -0.02919475       0.00302484
Sn      21.66460308      15.65938440      12.66783253      -0.00121350      -0.06374193       0.09095297
Sn      10.15152560       3.12705977      17.06472137      -0.02424908       0.04311558      -0.03020466
Sn      21.66428139       3.14764328      17.03520572       0.04247922      -0.04386665       0.04254940
Sn      10.15575429       7.30824755      17.03755265      -0.06756762      -0.05058801       0.03361187
Sn      21.66779708       7.31717874      17.04300521       0.02505614      -0.02292196       0.01256280
Sn      10.13296207      11.47896706      17.03721889       0.13692147       0.00769107       0.07097157
Sn      21.66259970      11.47832681      17.02918660       0.07981465      -0.01285534       0.01960194
Sn      10.13372511      15.65805250      17.04101594       0.09234818       0.00144454       0.02991530
Sn      21.64037567      15.66108027      17.04896682       0.17741525      -0.05716131      -0.03586233
Sn       1.35986671       1.03075154       0.40717428       0.05294376       0.05122750      -0.02920578
Sn      12.88664039       1.06774586       0.40301808       0.00710547      -0.10530990       0.00358205
Sn       1.37088249       5.21633970       0.40698395      -0.05180042       0.02520663      -0.05426412
Sn      12.88939773       5.23052623       0.39360297      -0.04178589      -0.00573000       0.01194812
Sn       1.36265139       9.38730709       0.40672421       0.01647454       0.00470982      -0.05624494
Sn      12.89813063       9.38750971       0.39456846      -0.11458613       0.00613021       0.02366261
Sn       1.37014623      13.56372964       0.40833673      -0.01710770      -0.01830414      -0.08404095
Sn      12.86062911      13.55792021       0.39099203       0.06920526       0.04263326       0.05311232
Sn       1.34380190       1.03428345       4.75076852       0.11164568       0.01792867       0.05038497
Sn      12.88113584       1.05504950       4.75746947       0.01424609      -0.06682767       0.01115643
Sn       1.35669733       5.21743943       4.77041181       0.10948043       0.00002060      -0.06382171
Sn      12.87338729       5.20890323       4.76550557       0.04637975       0.07123226       0.04309647
Sn       1.36479010       9.39857297       4.75978361      -0.00311797      -0.02462138      -0.00501562
Sn      12.89016352       9.38174734       4.75979923      -0.04327799       0.06486071       0.02086905
Sn       1.36489856      13.55402835       4.74428530      -0.01289516       0.01810945       0.03653159
Sn      12.89000437      13.56267773       4.74969727       0.00132856      -0.00085860       0.01989551
Sn       1.36604367       1.05520003       9.09821658       0.03352784      -0.08788070       0.06631098
Sn      12.86818050       1.03469097       9.13563574       0.05956243       0.03175604      -0.03970261
Sn       1.36983133       5.22568215       9.10962235      -0.03499214       0.02253592       0.07034095
Sn      12.87195152       5.22248712       9.12160670       0.07084730       0.03314245      -0.02289726
Sn       1.37249285       9.39022141       9.12380539      -0.09783316      -0.01263249      -0.01225838
Sn      12.88472807       9.39987579       9.12909404       0.00494862      -0.01704237      -0.02809792
Sn       1.35080674      13.54371457       9.13104141       0.05485469       0.07582687      -0.02532839
Sn      12.89502413      13.55598103       9.10242560      -0.04481433       0.02279138      -0.00767294
Sn       1.36799581       1.05322822      13.50010378      -0.01869789      -0.00584149      -0.06844351
Sn      12.88830986       1.04020267      13.47319653      -0.00894038       0.00924456       0.03177429
Sn       1.36711998       5.21501633      13.47197716      -0.00083370       0.02638711       0.02789373
Sn      12.90363444       5.23586066      13.49348832      -0.13632014      -0.03123421      -0.02755446
Sn       1.35779696       9.40064831      13.48852410      -0.00153472      -0.03163691       0.00768720
Sn      12.88757234       9.40459477      13.48848155       0.01527241      -0.02494731      -0.06312751
Sn       1.37440561      13.57255632      13.48553575      -0.02273715      -0.03413448      -0.00298621
Sn      12.86531077      13.56702347      13.47656592       0.07520455       0.02379539      -0.00083886
256
Lattice="23.03228284 0.0 0.0 0.0 16.696356560000005 0.0 0.0 0.0 17.44441552" Properties=species:S:1:pos:R:3:forces:R:3 mlfcs_configuration_id=1 mlfcs_sampling_method=gaussian pbc="T T T"
Se       4.10362534       1.06065425       0.12336324       0.04885390      -0.09856382      -0.09243922
Se      15.64615738       1.04638822       0.11957953      -0.01773247      -0.02868758      -0.02731082
Se       4.11654428       5.21995320       0.09513857       0.07210750      -0.00355093       0.04634760
Se      15.63653508       5.21852909       0.09304676      -0.04664461      -0.00098417       0.06768757
Se       4.11591178       9.39121707       0.12404890       0.00832733      -0.00821766      -0.07770288
Se      15.64150730       9.39212882       0.10856116      -0.03355369      -0.01877423      -0.01739699
Se       4.11686587      13.56407437       0.09524901       0.06800690       0.02845404       0.02673177
Se      15.63105465      13.55864253       0.09357013       0.00116624       0.05675746       0.06997686
Se       4.12153597       1.04774874       4.44931009       0.00476638      -0.04497620       0.10515020
Se      15.63133832       1.05379310       4.47776940      -0.02796267      -0.02477384      -0.03804799
Se       4.12668212       5.21831436       4.45872671      -0.06195160      -0.01024596       0.05770991
Se      15.62172818       5.22137128       4.47096996      -0.02066967      -0.02064887      -0.05393878
Se       4.12929706       9.40301417       4.46585488       0.00493475      -0.05741587       0.00862405
Se      15.62012311       9.38882330       4.46934948       0.12062395       0.04042777      -0.02088535
Se       4.11440292      13.56032457       4.46970601       0.01357034       0.03692240       0.01510190
Se      15.62752559      13.55982285       4.47029169       0.01149996       0.03689854      -0.01550851
Se       4.11240382       1.04627713       8.83101308       0.01793597      -0.02126615      -0.02746008
Se      15.62117088       1.03902368       8.84265881       0.05423818       0.00383471      -0.03673930
Se       4.10480295       5.19675868       8.80966259       0.03894621       0.06721604       0.08138352
Se      15.63285627       5.21823440       8.82710493      -0.04516013      -0.02393345       0.05694260
Se       4.12856565       9.36528602       8.83224038      -0.06978912       0.12454749       0.00466437
Se      15.64817955       9.38073656       8.82448298      -0.07057561       0.05618550       0.00831479
Se       4.10889483      13.55716005       8.82501842      -0.02732027       0.04766050      -0.00026390
Se      15.64684002      13.58447738       8.82492165      -0.08141797      -0.06115063       0.06396070
Se       4.13547435       1.04419185      13.20692183      -0.07279399       0.00706024      -0.07221476
Se      15.63163218       1.04514667      13.19303967       0.00947221       0.00190327      -0.02425727
Se       4.14821229       5.22643808      13.18231228      -0.15087028      -0.05412641       0.01170417
Se      15.64225515       5.21430690      13.18448742      -0.13817358      -0.02622148       0.02732777
Se       4.12550976       9.39232522      13.19217068      -0.05431958      -0.00345317      -0.03624232
Se      15.63270502       9.39538020      13.19363458      -0.00390523      -0.02253451      -0.01445337
Se       4.09705408      13.57276924      13.17956473       0.10815463       0.00306081       0.01809053
Se      15.61814218      13.56551940      13.19022473       0.03390341      -0.02856719       0.00837541
Se       7.39237485       3.13919098       4.24203847      -0.00209062      -0.02754535       0.06365180
Se      18.91138190       3.12503192       4.25499435      -0.02078400       0.00265215       0.01979762
Se       7.40209856       7.29489087       4.26270305      -0.00881772       0.06515148      -0.00880871
Se      18.91608136       7.28605034       4.23587431       0.01031893       0.08479730       0.09894876
Se       7.39918672      11.47684927       4.25442602      -0.00174642       0.00427441       0.01831949
Se      18.91517151      11.48131454       4.26493672      -0.00680415      -0.00347268      -0.03963122
Se       7.38819887      15.64142836       4.24452698      -0.01072748       0.07772166      -0.00649142
Se      18.91834050      15.66559755       4.25114683      -0.02327932      -0.05657741      -0.00412784
Se       7.37429292       3.11384073       8.60823374       0.12708134       0.05277427       0.06124710
Se      18.90987405       3.12679677       8.61694991       0.04976220       0.01925829      -0.00092271
Se       7.39619245       7.31546319       8.60980393       0.01921020      -0.10372196       0.01501793
Se      18.90682816       7.30975855       8.60120768       0.06396276      -0.03958894      -0.00513898
Se       7.40320683      11.48008447       8.61508968       0.02150208       0.00344216      -0.00074524
Se      18.93133410      11.47283686       8.63716709      -0.07049251       0.03716926      -0.07975514
Se       7.39705560      15.64037791       8.61726330       0.03653340       0.07772274      -0.02078011
Se      18.90468888      15.64563052       8.62053444       0.03176750       0.02831752      -0.02654035
Se       7.40486574       3.12465898      12.98754203      -0.01842389       0.01612423      -0.07308499
Se      18.92702641       3.14524368      12.98296212       0.01964763      -0.06522735      -0.02215722
Se       7.41294420       7.28616181      12.97448892      -0.04230786       0.04889976      -0.00195711
Se      18.90678128       7.30616206      12.97195349       0.03880631       0.00738012       0.00620227
Se       7.39764834      11.49788069      12.97597079      -0.00290426      -0.06969075       0.03067029
Se      18.91958926      11.47673625      12.97842512       0.01404155       0.03460520      -0.04717551
Se       7.39937008      15.65763132      12.98932106      -0.01191876      -0.02692428      -0.01716345
Se      18.93192528      15.65624428      12.98356345      -0.03853187       0.01143771      -0.01276204
Se       7.38780127       3.13000189      17.34817476       0.12360671      -0.02445991      -0.05241522
Se      18.92411102       3.13299676      17.34763580      -0.03917142      -0.04771334      -0.03715374
Se       7.40421758       7.31697286      17.34166545      -0.01960236      -0.02630550       0.01277599
Se      18.91189435       7.30832821      17.30946592      -0.01316293      -0.00961549       0.10490067
Se       7.40313877      11.44257481      17.32153723      -0.00094210       0.08860485       0.07829870
Se      18.91996902      11.48383423      17.32714758      -0.05865363      -0.01467557       0.03614094
Se       7.39218889      15.66685349      17.33393156       0.02802184      -0.09014556       0.04641294
Se      18.93788054      15.65312888      17.34285223      -0.22188679       0.00600195       0.01271377
Se       1.65740795       3.13219093       2.27660178      -0.08372445       0.02643262       0.02543843
Se      13.15628335       3.13052455       2.27297781       0.05837772       0.00133898       0.06387359
Se       1.63868088       7.29754788       2.29586880      -0.01092991       0.03109676       0.01315364
Se      13.15772674       7.30214184       2.28556340      -0.00432904       0.02427999      -0.02400099
Se       1.64347043      11.48522708       2.27662810       0.03705594      -0.03432100       0.07255410
Se      13.14696475      11.49010573       2.28250185       0.03571396      -0.02805016       0.05880983
Se       1.62707078      15.65758621       2.29125892       0.05690621       0.00835577      -0.00816899
Se      13.14207347      15.65544290       2.29398105       0.09287573      -0.01363875      -0.01766314
Se       1.64498307       3.13720047       6.63368641      -0.02924401      -0.03220036       0.01968583
Se      13.16069103       3.12785446       6.64290120      -0.03988762      -0.00758543      -0.00796767
Se       1.64994476       7.31976254       6.66567280      -0.03249394      -0.05639873      -0.06713437
Se      13.17052870       7.30387246       6.65125631      -0.15779033      -0.01819741      -0.01786805
Se       1.64890743      11.48027072       6.64903675      -0.02602521      -0.03625960      -0.01551045
Se      13.16561816      11.47846611       6.64043623      -0.03257597       0.04474241       0.03442211
Se       1.63709447      15.65948718       6.64775904       0.04235842       0.00677896      -0.00385098
Se      13.16078273      15.65984887       6.64398069      -0.08963479      -0.03117213      -0.00356915
Se       1.64880169       3.13466908      10.99648485      -0.07259214      -0.03868849       0.08003862
Se      13.17180367       3.12587321      10.99228203      -0.10756738       0.03139248       0.02668604
Se       1.63078877       7.29475935      11.00935472       0.06239054       0.00640017       0.00619153
Se      13.15464212       7.30160148      11.01503000      -0.06494052      -0.01224638      -0.04001515
Se       1.64463796      11.48221942      11.01293127      -0.11912820      -0.03241142       0.00191729
Se      13.16354197      11.45797941      11.00518860       0.00331144       0.09739924       0.00238506
Se       1.61943710      15.65350868      11.00878665       0.11205073       0.04832896       0.01474814
Se      13.16783595      15.66502442      11.01086073      -0.04417287      -0.05740013      -0.00724273
Se       1.63623559       3.13573227      15.36465769       0.00948750      -0.05460972      -0.02231132
Se      13.15736670       3.14074202      15.36435915      -0.06200021      -0.03523392       0.02640032
Se       1.64929599       7.31174381      15.36038895      -0.03349762      -0.06069644      -0.00082781
Se      13.16711957       7.31195546      15.37095612      -0.02549908      -0.08560838      -0.00082332
Se       1.63361597      11.47046688      15.36456024       0.07027744       0.03672364       0.05703562
Se      13.16280657      11.46950269      15.37431199       0.01669537       0.05202100      -0.05878937
Se       1.62882165      15.65110739      15.37103334       0.14479177       0.03662440       0.00285920
Se      13.18183193      15.63937492      15.38465701      -0.11076133       0.05557788      -0.04839225
Se       9.87599288       1.04794781       2.07609176      -0.00944454       0.02420139      -0.00096874
Se      21.39508315       1.04229924       2.08944879      -0.02392779      -0.00583849      -0.01892784
Se       9.86992975       5.22924757       2.06846461      -0.04657978      -0.04608758      -0.01175391
Se      21.39003336       5.20720560       2.07945852       0.00033475       0.09557556      -0.01852737
Se       9.88894572       9.39124081       2.07293943      -0.09243559       0.01102923       0.00154043
Se      21.37948971       9.38972144       2.05898034       0.11696302       0.01445366       0.06116671
Se       9.86536568      13.56837137       2.08809842      -0.01772345      -0.02486711      -0.07683570
Se      21.41872799      13.56023766       2.08926128      -0.16592036       0.00178178      -0.03387990
Se       9.87693198       1.04232361       6.44033811      -0.03987759      -0.01175045      -0.02451331
Se      21.39125504       1.04494005       6.43192883       0.00919862      -0.03007762       0.03752262
Se       9.86051336       5.20248898       6.44254461       0.03908145       0.09598048      -0.02862237
Se      21.38786888       5.21196434       6.43609722      -0.02386679       0.07371007       0.00453440
Se       9.88244378       9.39381801       6.42945161      -0.00668352      -0.04051729      -0.00133261
Se      21.40289881       9.40780622       6.44095773      -0.02341134      -0.10897400      -0.02923633
Se       9.88423109      13.57852311       6.44731316       0.01738729      -0.08435309      -0.03699143
Se      21.39677687      13.57208698       6.44120877      -0.06392057      -0.03283663       0.00928655
Se       9.86352108       1.05084332      10.78355790       0.00558479       0.00065568       0.01904963
Se      21.38268988       1.05687174      10.80551824       0.03395441      -0.02237066      -0.04170280
Se       9.88936844       5.21520848      10.78559355      -0.09815525       0.00726296      -0.00415565
Se      21.38823151       5.21894554      10.79790593       0.02391527       0.00675178      -0.02771088
Se       9.88583126       9.38840166      10.80063639      -0.05502259      -0.01035672       0.00550888
Se      21.38074961       9.39651754      10.79714713       0.02039966      -0.02571347       0.00905101
Se       9.86699633      13.56374521      10.79527429       0.00983879       0.02954748       0.00096180
Se      21.38793433      13.58381692      10.79613158       0.06592569      -0.06045469       0.03527292
Se       9.87205550       1.02286158      15.14927785       0.01018596       0.11291563       0.05903823
Se      21.38800514       1.03697756      15.17203700      -0.02092675       0.01965290      -0.04319620
Se       9.87284508       5.23080967      15.15883697       0.01027922      -0.06298727       0.03094554
Se      21.39100816       5.21703726      15.15825789       0.01348217       0.02408068       0.01109501
Se       9.89168241       9.36881826      15.13820447      -0.06062448       0.11885481       0.04439805
Se      21.38520417       9.39215965      15.16512097       0.07938396      -0.01969608      -0.07324033
Se       9.87922533      13.56226105      15.16841036       0.02706574       0.01701791      -0.04121183
Se      21.40093783      13.56794409      15.16784650      -0.07073621      -0.01515232      -0.06733904
Sn       7.12722588       1.03822126       1.78925062       0.00116856       0.02678470      -0.01357605
Sn      18.64174698       1.04384949       1.79700199       0.06299830       0.01702422      -0.02392589
Sn       7.09999071       5.20374839       1.77040175       0.05861286       0.06178340       0.01126575
Sn      18.63700824       5.21537915       1.76719920       0.01642955       0.04439233       0.02814731
Sn       7.11464785       9.38340595       1.80684670       0.07720393      -0.01580964      -0.06172605
Sn      18.65865827       9.38789687       1.77863662      -0.11895546       0.00042750      -0.02499104
Sn       7.11300739      13.54702220       1.78110365       0.03177840       0.02076477      -0.07100365
Sn      18.63066233      13.56525500       1.76627040       0.12565782      -0.01700488       0.03610269
Sn       7.11687968       1.04532236       6.14703843       0.05940223       0.01786048      -0.02293109
Sn      18.64481557       1.03063120       6.15192319      -0.00898734       0.05846220      -0.00396036
Sn       7.11649731       5.22425381       6.14326995      -0.02537010      -0.05100228       0.00864220
Sn      18.62687697       5.21476325       6.14702997       0.03722646      -0.00488720      -0.04853016
Sn       7.13062908       9.39060449       6.15869413      -0.00513959       0.00405229      -0.02767607
Sn      18.65071595       9.38944783       6.15087755      -0.02653162      -0.02731605      -0.04610101
Sn       7.14383736      13.58570835       6.13109634      -0.03879950      -0.07739086       0.06762151
Sn      18.63137552      13.58095270       6.13279353       0.05133675      -0.02747127       0.01935150
Sn       7.11127402       1.03897415      10.50868248       0.01971094       0.00536346      -0.05410319
Sn      18.63961688       1.03733045      10.49773809      -0.03604580       0.03580945       0.03912154
Sn       7.11737606       5.20913013      10.52729655       0.07377893      -0.00777661      -0.10044521
Sn      18.64361596       5.22679282      10.49958944      -0.03589021      -0.03711177       0.02170350
Sn       7.12263986       9.38487883      10.47796313       0.03459887       0.05988963       0.07812716
Sn      18.62686075       9.37390818      10.48198238      -0.01488836       0.02929523       0.07095653
Sn       7.11254584      13.57935307      10.50403585       0.01735731      -0.06869150       0.00718641
Sn      18.65354648      13.57021333      10.51230580      -0.06284383      -0.02469062       0.01351895
Sn       7.11549046       1.04907560      14.87287124       0.05568537      -0.02684294       0.02618693
Sn      18.63487437       1.04943149      14.87124597       0.03541824       0.02947998      -0.03924679
Sn       7.11900390       5.20669754      14.85374281       0.01016427       0.03764924       0.05363517
Sn      18.64150590       5.22119533      14.85765884       0.00266503      -0.00857682       0.01058611
Sn       7.12476528       9.39771974      14.87176600       0.05642490      -0.02851800      -0.05560301
Sn      18.65615965       9.40478418      14.85557118      -0.11197369      -0.05900456       0.02581241
Sn       7.14133529      13.56079374      14.87603282      -0.04654615       0.00690053      -0.01451080
Sn      18.64132071      13.56198201      14.84750713       0.03283342       0.01716613       0.03619565
Sn       4.38951859       3.11528683       2.58893404       0.05860956       0.05729636      -0.08645664
Sn      15.92254358       3.12291155       2.58228076      -0.06399411       0.06258760       0.03899969
Sn       4.38398032       7.29868495       2.58700600       0.05236905       0.03013512      -0.03204935
Sn      15.90699028       7.32236628       2.57443873      -0.01334937      -0.06389956       0.02688360
Sn       4.40122760      11.48003307       2.58721883      -0.04435976      -0.00547795      -0.04710184
Sn      15.90290408      11.47856335       2.57810606       0.00527564      -0.01371100      -0.00211478
Sn       4.38287367      15.65976889       2.58576354      -0.01368705      -0.03882901      -0.05881865
Sn      15.91331120      15.66851774       2.59375450      -0.07031065      -0.03559285       0.00887937
Sn       4.38748479       3.13461118       6.93412892       0.03131664      -0.02445223      -0.01076201
Sn      15.90760921       3.12488316       6.95656563       0.01200746       0.00081067      -0.04835100
Sn       4.39487122       7.30278951       6.95230112       0.01799814      -0.02913353      -0.04006772
Sn      15.88566950       7.28482877       6.94832332       0.15271004       0.05101909      -0.06651743
Sn       4.39183892      11.48156340       6.92710097       0.01144407      -0.01455815       0.05436650
Sn      15.90714332      11.49909403       6.94860693       0.03888126      -0.06550058      -0.01119549
Sn       4.39293130      15.64875754       6.93641920      -0.03637252      -0.02379754       0.05020068
Sn      15.88608368      15.65572448       6.94881976       0.10744478       0.02904834      -0.05170122
Sn       4.37547804       3.12426649      11.28989416       0.10510594       0.02943964       0.03317413
Sn      15.89772215       3.13141547      11.28062479       0.08303840      -0.01558644       0.06032346
Sn       4.39737694       7.31250835      11.29895778      -0.05005070       0.00863974       0.01337879
Sn      15.88256857       7.29500561      11.31379783       0.11396553       0.03678572      -0.02133394
Sn       4.36345430      11.47558370      11.28966880       0.14652153       0.00742816       0.02150474
Sn      15.91542136      11.47230780      11.30550835      -0.01623032      -0.00656543      -0.00477679
Sn       4.39688884      15.67151034      11.29943939      -0.07708461      -0.05241157       0.01096743
Sn      15.91113610      15.63829752      11.31337295       0.03646954       0.05884025      -0.00061075
Sn       4.38362915       3.12527312      15.66235021       0.00045805       0.00332933      -0.00255840
Sn      15.89174681       3.13316836      15.67224735       0.08914082      -0.00870004      -0.05483721
Sn       4.39416358       7.28908082      15.66133460       0.00799021       0.08614911      -0.00821233
Sn      15.91479595       7.28618991      15.65182503       0.00686073       0.07572467       0.00519872
Sn       4.39999967      11.48175989      15.66669241      -0.06510210      -0.04780382      -0.00067370
Sn      15.92597061      11.48374447      15.66915157      -0.06738649      -0.04872598      -0.01934785
Sn       4.41834169      15.65101003      15.65459386      -0.15121207       0.03385713       0.05628360
Sn      15.91165362      15.65753799      15.65730554       0.06856713      -0.01160625       0.01429557
Sn      10.13898098       3.15397910       3.96609283       0.00988468      -0.04460529      -0.02159455
Sn      21.65812351       3.14003996       3.96173294       0.02482957      -0.03379639       0.03029228
Sn      10.14677613       7.31059253       3.94990557       0.03351597      -0.00623873       0.02223143
Sn      21.66897264       7.32409935       3.96748617      -0.04573895      -0.07997688      -0.03813455
Sn      10.14554283      11.47398789       3.95872100       0.02404295       0.00662831       0.02430284
Sn      21.66290674      11.47528087       3.97198751       0.01278985       0.01843309      -0.01613273
Sn      10.13197286      15.66176808       3.95902753       0.03761749      -0.00511474       0.02259576
Sn      21.66921585      15.64187820       3.97611071       0.01869825       0.02058951      -0.02143963
Sn      10.16176130       3.14047656       8.30878073      -0.12161781      -0.06788660       0.04461561
Sn      21.67373758       3.13492921       8.30787556      -0.04355819      -0.02163063       0.01392574
Sn      10.14906197       7.30861514       8.32948903      -0.01751277      -0.00599556      -0.01370706
Sn      21.66721898       7.30788211       8.33866439      -0.02365455      -0.02369621      -0.04710780
Sn      10.16156529      11.45038839       8.32075389      -0.04044910       0.08778105       0.02254003
Sn      21.66379986      11.46153795       8.32487011       0.05990228       0.08521764       0.02505086
Sn      10.16179253      15.64228240       8.32729229      -0.05365281       0.04612262       0.01439097
Sn      21.65628813      15.64642896       8.33870221       0.00939927       0.03295028      -0.04388542
Sn      10.14387937       3.13550278      12.66631998       0.05808838      -0.03105823       0.04608553
Sn      21.68406954       3.13690718      12.68320716      -0.07157088      -0.00895062       0.04703670
Sn      10.15506041       7.29087160      12.69685746      -0.00926637       0.04474123      -0.03206917
Sn      21.66220652       7.30292910      12.68011560      -0.01038427       0.01296930       0.00741016
Sn      10.14349843      11.48600564      12.68759122       0.00754735      -0.02701954      -0.01848705
Sn      21.67196385      11.47897099      12.69016415      -0.01752022       0.02804722      -0.03048383
Sn      10.14511646      15.67544540      12.66935285       0.00216996      -0.03899225       0.01070601
Sn      21.67805574      15.66682715      12.67651057       0.00616449      -0.01006694       0.04067740
Sn      10.17159768       3.14083556      17.05584743      -0.13482497      -0.04853619      -0.07870717
Sn      21.66572659       3.12870840      17.04404195       0.03867248       0.01448003       0.01954595
Sn      10.15321025       7.31898166      17.04794918      -0.00865942      -0.03446213       0.00203903
Sn      21.65633193       7.31321407      17.05534754       0.03370114      -0.06770730      -0.01379489
Sn      10.15585154      11.48651393      17.04342676      -0.00956373      -0.07610012      -0.02217879
Sn      21.65615648      11.47037700      17.02978140       0.09561996       0.06476966       0.07210953
Sn      10.15167443      15.65231359      17.04173616      -0.02778318       0.03050201       0.03542257
Sn      21.63589018      15.64067490      17.05734444       0.23226822       0.02700052       0.02473417
Sn       1.35978246       1.04744201       0.38480226      -0.02331187      -0.01479718       0.02526084
Sn      12.89695719       1.04239581       0.40160951      -0.02416674      -0.01647650      -0.00734770
Sn       1.38968651       5.23308963       0.39564345      -0.11574259      -0.05701028      -0.03159863
Sn      12.87663793       5.21466978       0.40380809       0.03606112       0.04781898      -0.00627404
Sn       1.36537648       9.38806193       0.41338092       0.02063068       0.02521904      -0.05461616
Sn      12.88142804       9.41501026       0.39961654       0.04695233      -0.06948299      -0.02791234
Sn       1.38428190      13.56967670       0.40833872      -0.11155823       0.01019719      -0.04977367
Sn      12.87532403      13.55756592       0.40330617       0.02343318       0.03942822      -0.04270936
Sn       1.37631425       1.04423865       4.74694906      -0.05744596       0.00899262       0.01172755
Sn      12.86896755       1.02956472       4.74213677       0.03662919       0.06240566       0.03386661
Sn       1.36752357       5.22917567       4.75967883       0.02415857      -0.00130581       0.01782939
Sn      12.85996599       5.21601762       4.75818500       0.08939385      -0.00057559      -0.00081459
Sn       1.38738870       9.37744299       4.75590621      -0.03213098       0.07447292       0.03810756
Sn      12.89962866       9.39651415       4.76544612      -0.10012911      -0.02193797      -0.02665441
Sn       1.36757456      13.56940294       4.76758909      -0.01991595      -0.01873955      -0.00019586
Sn      12.87447527      13.57488409       4.74608296       0.01053538      -0.02132993       0.03586249
Sn       1.36971240       1.04562350       9.11475394      -0.04108644      -0.03560659      -0.03146023
Sn      12.88234328       1.03761069       9.11019986      -0.03990941       0.02735803       0.00664833
Sn       1.36289257       5.20688534       9.12414485      -0.02726763       0.05774862      -0.05316513
Sn      12.87106928       5.22504500       9.10910208       0.04837098      -0.03860321       0.02841098
Sn       1.36076577       9.38576833       9.13416834       0.05584686      -0.00156338      -0.03018664
Sn      12.88587304       9.38989703       9.12590406       0.05309197      -0.00345505      -0.01742773
Sn       1.34535679      13.56567217       9.14089201       0.05299049      -0.00727652      -0.08293239
Sn      12.88389360      13.56678264       9.12639815       0.03565309      -0.02718854       0.02760592
Sn       1.37538477       1.02386142      13.46519749       0.02047837       0.02889057       0.08532809
Sn      12.88467305       1.03668732      13.49514100       0.00048871       0.00529215      -0.01437242
Sn       1.36327697       5.19857992      13.46934061       0.12040903       0.09152708       0.04919348
Sn      12.85507338       5.21558397      13.48013691       0.13655702       0.02567518       0.01297632
Sn       1.36218409       9.40280316      13.49400595       0.05174887      -0.05478848      -0.03738028
Sn      12.88086625       9.37066743      13.48819357       0.00949417       0.09348607       0.00067343
Sn       1.37198232      13.56919742      13.49183555      -0.08353483       0.00308874      -0.00141677
Sn      12.87092186      13.58619106      13.47242647       0.00370149      -0.09333218       0.05914864
256
Lattice="23.03228284 0.0 0.0 0.0 16.696356560000005 0.0 0.0 0.0 17.44441552" Properties=species:S:1:pos:R:3:forces:R:3 mlfcs_configuration_id=2 mlfcs_sampling_method=gaussian pbc="T T T"
Se       4.12512749       1.02735415       0.09782424      -0.01447041       0.04676480       0.02487844
Se      15.64894037       1.04161863       0.11552612      -0.02703787       0.03390185      -0.02240314
Se       4.12000481       5.21726719       0.12076539      -0.04475369       0.01389534      -0.04418710
Se      15.63141009       5.20050939       0.09909449       0.00635296       0.03865765       0.08429812
Se       4.12314718       9.39636100       0.09145631      -0.03004296      -0.00398774       0.09905619
Se      15.62653326       9.38658869       0.10347219      -0.00204596       0.01211536       0.00885614
Se       4.10387612      13.56021134       0.09984079       0.07406741       0.01043233      -0.00154678
Se      15.64149201      13.57458626       0.10566879      -0.02307766      -0.05337514      -0.00574571
Se       4.11371486       1.04562687       4.46006502      -0.02592949      -0.01838360       0.02728008
Se      15.62230836       1.03482542       4.46188264       0.00532873       0.05639807       0.00815336
Se       4.10600052       5.21993736       4.47552793       0.03610849       0.00690519      -0.05383129
Se      15.61790570       5.21856806       4.46603141       0.05529069      -0.00022727      -0.03797196
Se       4.12105035       9.39227652       4.45369478      -0.00597681      -0.03346255       0.05159498
Se      15.62115279       9.39270014       4.47851858       0.04073112      -0.00232236      -0.07541939
Se       4.09549339      13.56995231       4.48012699       0.07803475      -0.00583509      -0.06163917
Se      15.63224642      13.57199707       4.46120008      -0.07334361      -0.05261709       0.04534764
Se       4.11644160       1.02801849       8.80589122       0.00265642       0.03734523       0.09231875
Se      15.64320434       1.03437768       8.82477937      -0.02411981       0.03508047       0.02260404
Se       4.10377084       5.20421707       8.82759627       0.08112175       0.09413147       0.03181720
Se      15.62648091       5.22209648       8.83386003       0.07142339      -0.01230352      -0.05916955
Se       4.12084376       9.39479192       8.84511233      -0.07603809       0.00217081      -0.06455715
Se      15.62310074       9.39185656       8.84066155       0.01868145       0.00779602      -0.08660053
Se       4.13028066      13.55227741       8.82621110      -0.05677845       0.08180250       0.02747594
Se      15.64735789      13.57157584       8.83128728       0.00384368      -0.03198656      -0.02927601
Se       4.11545841       1.04038962      13.19332072       0.04241846       0.03274269       0.00183016
Se      15.63125294       1.04380184      13.19122452       0.02029167      -0.00251807      -0.02609026
Se       4.11085454       5.22363806      13.21958098       0.05775247      -0.02839311      -0.13802178
Se      15.61600681       5.22155689      13.18283663       0.03983581       0.00186370      -0.00116310
Se       4.12340929       9.39287148      13.19805708       0.01180619      -0.02119873      -0.10114190
Se      15.64553175       9.39433012      13.20175905      -0.02827085      -0.00724533      -0.03848127
Se       4.09419228      13.58239957      13.19418915       0.09744262      -0.09045668      -0.04971927
Se      15.64455511      13.55429629      13.18213083      -0.08430117       0.05491699       0.04998437
Se       7.40198081       3.13110182       4.25934452       0.02102165      -0.00619555       0.00083573
Se      18.92750800       3.11361999       4.26625202      -0.06061908       0.02274803      -0.01665435
Se       7.40060425       7.30332352       4.24180268       0.00523682      -0.00066902       0.04222282
Se      18.92169333       7.28122026       4.26299777      -0.02762342       0.12408345      -0.05248181
Se       7.38560037      11.47998506       4.25532214       0.06635549      -0.01378938       0.00179309
Se      18.92835823      11.47766393       4.24957244      -0.08198946       0.00184721       0.02710462
Se       7.39545540      15.66626845       4.26187680       0.03461784      -0.08456122      -0.06663574
Se      18.91280655      15.65117515       4.24084206       0.02009046       0.03141305       0.08174488
Se       7.40440617       3.11367404       8.62513567      -0.01970460       0.10168790      -0.05290353
Se      18.91794906       3.15514172       8.60661635       0.03210934      -0.09000720       0.06460954
Se       7.39949481       7.32334422       8.62953161       0.08054581      -0.09208194      -0.08296250
Se      18.90970073       7.30760101       8.61763770       0.01034042      -0.00558869      -0.02716163
Se       7.40334099      11.47246367       8.61672451      -0.02640712       0.00690225      -0.04058616
Se      18.90068232      11.48080171       8.62211792       0.10292921      -0.01458701      -0.03168898
Se       7.39824723      15.63738911       8.62750303       0.02795154       0.06520239      -0.05866170
Se      18.92030810      15.64627947       8.61481171      -0.04885818       0.03851611       0.03667196
Se       7.38551473       3.12101810      12.97334348       0.04928102       0.06875555       0.01786925
Se      18.92894705       3.12487716      12.98512373      -0.05009824       0.04179524      -0.00849866
Se       7.39513826       7.30784081      12.97730764       0.10819880       0.00844078      -0.01216824
Se      18.92539341       7.30001322      12.96299631      -0.07505828       0.02209485       0.08251992
Se       7.38670194      11.47413170      12.96623099       0.04288580       0.06110327       0.08456250
Se      18.92076497      11.47479280      13.00246766      -0.01548746       0.03743352      -0.07857384
Se       7.38314428      15.65557595      12.96744206       0.08535634      -0.01489873       0.05988993
Se      18.91172883      15.65495381      12.95546788       0.01411749       0.01642397       0.07670019
Se       7.40288969       3.15030127      17.33529109      -0.06663310      -0.07049000      -0.01395759
Se      18.91926092       3.14152142      17.33818594      -0.01892273      -0.05205902      -0.03230485
Se       7.39471182       7.28260397      17.34623538       0.05229581       0.08255411      -0.01418479
Se      18.91553116       7.29523450      17.34109144       0.01439954       0.01280169      -0.01503935
Se       7.39468462      11.47416622      17.34588838       0.01936298       0.03476911      -0.07967007
Se      18.90327902      11.48992363      17.32584861       0.03680114      -0.08222569      -0.02784130
Se       7.39389441      15.67276908      17.35109902       0.04351066      -0.09753415      -0.07568312
Se      18.91763889      15.64413432      17.33453275      -0.00699226       0.02819760      -0.00920496
Se       1.64318347       3.13164743       2.28677012       0.00234179      -0.00847213      -0.00927301
Se      13.15828381       3.12912845       2.27325904       0.02930692       0.04409347       0.06685677
Se       1.63728561       7.31450758       2.27399549       0.02806813      -0.04186883       0.04521351
Se      13.15669658       7.29716380       2.28879233      -0.03254331      -0.00059236      -0.02388199
Se       1.63856438      11.49422441       2.29274466       0.02284694      -0.08392834      -0.01412341
Se      13.14547410      11.48616276       2.27993231       0.05346329      -0.02931161       0.00590775
Se       1.63668075      15.65667781       2.28276136       0.03524082       0.00978676       0.06224760
Se      13.16752069      15.64579452       2.28148936      -0.02106377       0.02959255       0.04841129
Se       1.63588701       3.12561581       6.65977463       0.04607201       0.01671577      -0.03892995
Se      13.16488010       3.14837164       6.67145915      -0.06438808      -0.10914465      -0.07198796
Se       1.63214355       7.30606553       6.63702071       0.08810225       0.02393630       0.05328495
Se      13.15081608       7.29906051       6.63821116      -0.00986400       0.01514315       0.04313987
Se       1.63193184      11.47800763       6.63661553       0.08150342      -0.02446652       0.04390641
Se      13.16701341      11.47027294       6.67687840      -0.03532755       0.07050706      -0.12892161
Se       1.63793687      15.65425979       6.63582930       0.00222561       0.02203238       0.02855631
Se      13.17565305      15.66473462       6.65175187      -0.04436259      -0.04124999      -0.03869313
Se       1.62898269       3.13337887      10.99867228       0.07092711      -0.00322210       0.06979176
Se      13.17321569       3.13936415      11.01084098      -0.06254459      -0.06545057      -0.05398906
Se       1.61808696       7.29552718      11.01676420       0.11385768       0.03458931      -0.00869516
Se      13.17072097       7.31645304      10.99396646      -0.06727454      -0.01313136       0.08657172
Se       1.64546624      11.48960563      10.99330323      -0.01925004      -0.07733823       0.06413445
Se      13.15851309      11.48218890      11.00687894      -0.03268843       0.00339662       0.02826167
Se       1.62392910      15.65028264      11.00661354       0.03885526      -0.03752945      -0.02064025
Se      13.15711141      15.64790490      11.00545647       0.04046878      -0.01899832       0.01327812
Se       1.64205365       3.13569674      15.36794620      -0.01531006       0.00219468       0.03719513
Se      13.15449565       3.13219574      15.35178131       0.03861465      -0.00276151       0.09676692
Se       1.64722107       7.30535571      15.37138741      -0.02609213       0.02714352       0.06627755
Se      13.16819948       7.28583318      15.35125213      -0.07025399       0.12660002       0.06972288
Se       1.64518875      11.47937931      15.37269224      -0.00385980      -0.00166448      -0.00755270
Se      13.15397087      11.48609401      15.38031686       0.04530857      -0.04133824      -0.01139740
Se       1.64729054      15.65093133      15.34991358       0.02293367       0.00001706       0.07705610
Se      13.16628450      15.66575690      15.37743605      -0.03635385      -0.07831942      -0.06410333
Se       9.86690955       1.05096557       2.08456719       0.01296651      -0.00013202      -0.05501886
Se      21.40743555       1.03546653       2.07369734      -0.02996490       0.03537743      -0.01517402
Se       9.88317869       5.21889087       2.06478861      -0.03388690       0.00193631       0.06568536
Se      21.39599355       5.22410338       2.07684152       0.00593704      -0.04558453      -0.01640638
Se       9.87790182       9.38981885       2.09074468      -0.04558786       0.03082015      -0.01806123
Se      21.38284047       9.38653270       2.07607175       0.08327545       0.03230321       0.00693005
Se       9.88449551      13.55152132       2.06285892      -0.06200471       0.07326751       0.08451514
Se      21.37147011      13.56682200       2.06477883       0.10604739      -0.02912311       0.03537903
Se       9.87186047       1.05084141       6.43065034       0.01723722      -0.02533387       0.02384768
Se      21.39416021       1.04123425       6.44378691      -0.05457297       0.01077252      -0.04598802
Se       9.88045725       5.21139743       6.43537925      -0.03203741       0.04142781       0.01622062
Se      21.40228482       5.22225054       6.42309615      -0.05707971      -0.02157186       0.05530747
Se       9.88226215       9.38155980       6.45119090      -0.00253397       0.03515036      -0.08137476
Se      21.40208838       9.39530476       6.43863810      -0.08360124      -0.03512868      -0.01080323
Se       9.87361565      13.57328029       6.43335799       0.00042727      -0.02102486       0.01145680
Se      21.39420309      13.57521439       6.43144770      -0.00470865      -0.04472229       0.01533813
Se       9.86954404       1.03228397      10.78752492       0.03041354       0.01588945       0.08914493
Se      21.37356344       1.05152592      10.81625880       0.06446051      -0.01305521      -0.05490918
Se       9.88995926       5.20205592      10.80541820      -0.11047639       0.03071040      -0.02101353
Se      21.40606845       5.21374867      10.79918412      -0.07315594      -0.01298626      -0.02784372
Se       9.85562704       9.39507327      10.78753405       0.12459417      -0.05156177       0.05318686
Se      21.39384374       9.37679388      10.80359823      -0.01633309       0.07959629      -0.03280451
Se       9.88595110      13.55866325      10.78680042      -0.02633719       0.02789116       0.07674637
Se      21.37028716      13.56383091      10.79235371       0.05568512      -0.02037002       0.00255111
Se       9.86019578       1.04875782      15.15477383       0.07262655      -0.04277177       0.01970201
Se      21.38109003       1.03868190      15.16998658       0.05586030       0.03351426       0.00137665
Se       9.88173534       5.21701651      15.16546458      -0.04081013       0.00081701      -0.06936224
Se      21.38023827       5.21864047      15.16074675       0.02753668       0.00261723      -0.01626332
Se       9.87100761       9.39676049      15.15146920      -0.02707349      -0.03401385       0.01637301
Se      21.39694560       9.39792450      15.13010193      -0.04675518      -0.01837747       0.09642719
Se       9.88760903      13.53601872      15.15311304      -0.10478443       0.15559266       0.03470651
Se      21.40210087      13.56332218      15.14461167      -0.04670572       0.00995973       0.05796208
Sn       7.11477357       1.05449669       1.76411102      -0.00814814       0.03739432       0.06940796
Sn      18.65314227       1.04367661       1.77140211       0.00313921      -0.01994371       0.04293233
Sn       7.11987979       5.20814452       1.79198832       0.05468821       0.02866943       0.01379495
Sn      18.64917664       5.20112516       1.77929014      -0.02655043       0.06293263       0.05666188
Sn       7.11707908       9.40534101       1.76982507       0.05625718      -0.09160435       0.03835141
Sn      18.65789465       9.39207296       1.77170672      -0.09410032      -0.01008576       0.02808137
Sn       7.11893820      13.55847886       1.77057988       0.05532059       0.03172655       0.05298493
Sn      18.64280063      13.55421589       1.76152240      -0.09055868       0.05153664       0.08344470
Sn       7.12191417       1.02619907       6.13690833      -0.01767995       0.06445290       0.04626514
Sn      18.63276133       1.03551547       6.16443957       0.06004498      -0.00914726      -0.05652949
Sn       7.12627505       5.22077048       6.12666596       0.00120468      -0.00623035       0.01852640
Sn      18.63531273       5.22046979       6.13418465       0.03706108      -0.06232208       0.05083510
Sn       7.13479157       9.38037894       6.14156628      -0.04352178       0.02316215       0.00021624
Sn      18.63599184       9.39404911       6.13802504       0.07252004      -0.01764984      -0.00600983
Sn       7.12300200      13.56413375       6.13708607       0.00980712       0.02517581       0.01198742
Sn      18.64670330      13.56887893       6.14354380      -0.00910643       0.00441921      -0.03179431
Sn       7.12140635       1.05219307      10.50317548      -0.00027567      -0.06654183       0.03131674
Sn      18.63878538       1.04527453      10.52249969      -0.00936649       0.05141601      -0.08262233
Sn       7.11230738       5.22601534      10.48660211       0.10341007      -0.02492159       0.04089402
Sn      18.64402509       5.23406760      10.51042051       0.02515160      -0.05101466      -0.00927946
Sn       7.12741719       9.38680141      10.50584430      -0.07832615       0.03462011       0.04517579
Sn      18.63933173       9.38454614      10.50263507       0.00037293       0.04410700       0.01955966
Sn       7.12769475      13.55882288      10.49747101       0.03922982      -0.00113827       0.05002291
Sn      18.62824992      13.57040230      10.51098706      -0.00757538      -0.03968105      -0.01190032
Sn       7.12802754       1.05387933      14.86751638      -0.07930889      -0.03023807      -0.02703215
Sn      18.64577247       1.04726600      14.86572230      -0.02847634      -0.03436395      -0.02031458
Sn       7.12040272       5.24045829      14.86211819       0.01013900      -0.04240042      -0.01842266
Sn      18.63519358       5.22265687      14.86915625      -0.02382060       0.00939745      -0.04997216
Sn       7.11166302       9.40363269      14.86569576       0.05868171      -0.04110046      -0.04055300
Sn      18.63074305       9.40429375      14.87289446       0.06473142      -0.08416308      -0.03754246
Sn       7.11306552      13.58426688      14.87322568       0.09112344      -0.05857453      -0.08821565
Sn      18.64175040      13.58239724      14.86823068       0.03181591      -0.00834997      -0.03204156
Sn       4.39216492       3.12466920       2.58613316       0.00242589       0.04464775       0.00500312
Sn      15.91335320       3.13141900       2.57241479      -0.01214377      -0.00941502       0.05700616
Sn       4.39374505       7.30466335       2.56697991      -0.02049055      -0.03263048       0.03658489
Sn      15.89386905       7.31101287       2.55429577       0.03984668      -0.00796456       0.08716458
Sn       4.39449985      11.47466965       2.59339712      -0.02904030       0.05282643      -0.01652801
Sn      15.90365249      11.48604532       2.57634552      -0.03769859      -0.02222493       0.01090444
Sn       4.39358323      15.66090798       2.57568910      -0.01619811      -0.03167286       0.01857267
Sn      15.91855272      15.64360264       2.58326059       0.01252171       0.01720278      -0.02724678
Sn       4.40167215       3.13787257       6.96058299      -0.03519577      -0.05923775      -0.08688859
Sn      15.90095278       3.11748071       6.93147519       0.05462030       0.06001448       0.02728707
Sn       4.39905017       7.31034057       6.94244110      -0.07267789       0.00781859       0.01834440
Sn      15.89735760       7.31303001       6.92917149       0.01437360      -0.01688121       0.04948317
Sn       4.40403524      11.50802486       6.94508305      -0.06695830      -0.12519767      -0.01904191
Sn      15.91441825      11.47452188       6.92331640      -0.00854745      -0.00040868       0.07634670
Sn       4.38641856      15.64261067       6.92694849      -0.00754254       0.00996036      -0.00745086
Sn      15.92581077      15.65626824       6.94521541      -0.00094709      -0.02584546      -0.02899941
Sn       4.38935553       3.12954349      11.31216792      -0.03831753       0.02138825       0.02712858
Sn      15.90826380       3.13657914      11.30056237       0.01630333       0.00497166       0.01174539
Sn       4.38902422       7.29129220      11.28274493      -0.07211258       0.05044035       0.09985786
Sn      15.90597155       7.30592631      11.28966112       0.03826425       0.00419088       0.03455045
Sn       4.39210100      11.47998800      11.28096234       0.01206978      -0.00614599       0.08681546
Sn      15.89943592      11.48352312      11.30639300       0.08096093      -0.04869300      -0.03037980
Sn       4.38090900      15.65512410      11.31274649      -0.01510231       0.00092711      -0.03698621
Sn      15.91635790      15.65258676      11.29784265      -0.06714868       0.00273184       0.02315176
Sn       4.38615230       3.13595040      15.66557734       0.01617763      -0.00465417       0.01485147
Sn      15.91488121       3.13259094      15.67181394      -0.02474801      -0.05771057      -0.07213126
Sn       4.39339167       7.31320823      15.67233452       0.04649165      -0.05533115      -0.02388755
Sn      15.90054190       7.28727990      15.67906123       0.07261981       0.03962151      -0.08016000
Sn       4.39501234      11.46230562      15.65648810      -0.02957536       0.07867661      -0.02548475
Sn      15.91630591      11.47665371      15.65850568      -0.04778710       0.02171551       0.01488531
Sn       4.40645457      15.64306675      15.65564476      -0.06492569      -0.00809841       0.01194389
Sn      15.91070103      15.65744417      15.66858973      -0.00431963       0.00983797      -0.02869212
Sn      10.15962884       3.13325798       3.96877184      -0.04002048       0.03797847      -0.02827272
Sn      21.66406579       3.13189918       3.96495335       0.02807987      -0.00618375      -0.00877477
Sn      10.15266744       7.31308674       3.96942946      -0.00647687      -0.05013975      -0.05134985
Sn      21.66710005       7.29727008       3.96455472       0.00624782       0.02439816       0.02082474
Sn      10.15023628      11.48138229       3.98594326      -0.05488414       0.00170185      -0.08804498
Sn      21.66142015      11.48367337       3.97456262       0.04565532      -0.01637540      -0.04543612
Sn      10.15149648      15.67691807       3.96009761      -0.04264401      -0.09214374      -0.02625595
Sn      21.66989877      15.64555156       3.96036276      -0.04384406       0.00213743      -0.00727459
Sn      10.15300580       3.13973524       8.32817283       0.00635191      -0.03921082       0.01700740
Sn      21.67924903       3.13032255       8.32166020      -0.06391109       0.01991149      -0.00628964
Sn      10.17755631       7.30930371       8.31778707      -0.08447346      -0.05780144       0.04988410
Sn      21.65971524       7.29593454       8.33434758       0.00844499       0.00912816      -0.04132029
Sn      10.14687269      11.48072410       8.32434680       0.01996251       0.03488437       0.03674106
Sn      21.67397280      11.47098304       8.31422616      -0.09700371       0.03097896       0.01720121
Sn      10.15275943      15.65954921       8.32830721      -0.03369594      -0.00713307       0.00954218
Sn      21.65856334      15.66031447       8.31754327       0.07753292      -0.01396659       0.05446542
Sn      10.14530107       3.12183266      12.69909735      -0.03764180      -0.02628233      -0.06523000
Sn      21.67299209       3.13732213      12.69855788       0.03380344      -0.02957831      -0.00150286
Sn      10.17864295       7.28826908      12.67870200      -0.13298194       0.05062551      -0.02321129
Sn      21.66049613       7.29685314      12.67530993       0.06253299       0.01473524       0.04722683
Sn      10.14751993      11.46728444      12.68943619      -0.07566635       0.02501824      -0.03576240
Sn      21.66717486      11.48426076      12.69116305      -0.00244192      -0.02580332      -0.01603919
Sn      10.15654653      15.64980553      12.70729720      -0.09150966      -0.01180605      -0.11030623
Sn      21.66900219      15.63491477      12.67606201      -0.00934754       0.04996199       0.01515168
Sn      10.13311143       3.13144554      17.04597159       0.09235649       0.00504617       0.03747918
Sn      21.66197362       3.15138146      17.05267947       0.04171389      -0.07996910      -0.01718379
Sn      10.15777744       7.29605060      17.03719819      -0.05727947       0.05057199       0.03357786
Sn      21.66702593       7.30709141      17.02862653      -0.01283641       0.04287381       0.00914279
Sn      10.14871339      11.47959120      17.04503815       0.01558486      -0.04227366       0.03663801
Sn      21.65852397      11.47405513      17.04542105       0.02416143       0.00531625      -0.04430544
Sn      10.15142446      15.65958753      17.05799821      -0.00946809      -0.05276464      -0.04471884
Sn      21.66371440      15.64897806      17.05156620       0.03801874      -0.00783764      -0.02887248
Sn       1.37374868       1.03988562       0.40766665      -0.01867774       0.02093837      -0.05585668
Sn      12.89357750       1.05714449       0.41754593      -0.01437248      -0.06525451      -0.08324452
Sn       1.35897607       5.21845575       0.39987549       0.04898285      -0.01308637       0.00015830
Sn      12.88280091       5.21182414       0.38490710      -0.03870470       0.01493669       0.02154988
Sn       1.36856702       9.38472235       0.40062265      -0.01395675       0.08005305      -0.01021494
Sn      12.87584121       9.38140932       0.40210570      -0.01449100       0.02385882       0.02408016
Sn       1.36914944      13.57228787       0.42162135      -0.05413260      -0.01805060      -0.09466063
Sn      12.88655454      13.57134587       0.38898710       0.00580931      -0.00408384       0.00190357
Sn       1.35477115       1.06005592       4.75163180       0.03758141      -0.02784385       0.04192913
Sn      12.87334221       1.04383664       4.75996467       0.04018370       0.03125392       0.04212638
Sn       1.35861516       5.21526704       4.77316035       0.00098965      -0.01868294      -0.00009169
Sn      12.87572171       5.20438004       4.77029253      -0.00984814       0.02589496      -0.03531386
Sn       1.37256320       9.38620072       4.74504493      -0.01598600       0.01135257       0.01150027
Sn      12.87633541       9.39185886       4.77252332       0.00001820       0.02925942      -0.01853649
Sn       1.35727441      13.56564985       4.76761804      -0.04323677       0.00328923      -0.02165057
Sn      12.85996897      13.57683291       4.74904209       0.11044169      -0.03817098       0.07876367
Sn       1.37096018       1.04669446       9.13281634      -0.03109905      -0.03907661      -0.05141477
Sn      12.88929089       1.02045472       9.11412268       0.00164248       0.07600709       0.05494198
Sn       1.36902228       5.21636697       9.12674658      -0.08653445       0.00822045      -0.03724589
Sn      12.89167531       5.22440129       9.11982773      -0.03628429      -0.03844128       0.01393972
Sn       1.34917686       9.38785110       9.12613416       0.08145800      -0.01324891      -0.01080975
Sn      12.87287718       9.39871866       9.13105441       0.01962180       0.00722855      -0.05660526
Sn       1.36890890      13.53585725       9.10918959       0.00300300       0.12102635      -0.01849037
Sn      12.90264354      13.56102967       9.10212905      -0.03384260       0.03098011       0.01300895
Sn       1.37999270       1.04436118      13.49412376      -0.09023852      -0.00314720      -0.04614655
Sn      12.88655123       1.04881322      13.48670445       0.00178993      -0.03132236      -0.04655849
Sn       1.37461511       5.24109107      13.49278442      -0.05946313      -0.06762369      -0.04424435
Sn      12.86797825       5.22278338      13.49448916       0.01404560      -0.05469569      -0.10065738
Sn       1.37966724       9.38813986      13.49472380      -0.03386847       0.03506168      -0.03221911
Sn      12.89305907       9.41813108      13.47557434       0.02301575      -0.06980094       0.02707461
Sn       1.36256622      13.56343386      13.47817214      -0.04516959       0.00098304       0.01128726
Sn      12.87488144      13.53886829      13.47872736       0.08028719       0.11825125       0.04057015
256
Lattice="23.03228284 0.0 0.0 0.0 16.696356560000005 0.0 0.0 0.0 17.44441552" Properties=species:S:1:pos:R:3:forces:R:3 mlfcs_configuration_id=3 mlfcs_sampling_method=gaussian pbc="T T T"
Se       4.11959735       1.03822926       0.12464845      -0.02017121      -0.01681810      -0.11245584
Se      15.63217894       1.05607177       0.10790885       0.06795196      -0.08217285       0.01847169
Se       4.12416784       5.22004304       0.11898249      -0.04714094       0.03285135      -0.11672781
Se      15.63260458       5.22221183       0.10895797      -0.01343139      -0.03088253       0.00836278
Se       4.11302091       9.39538958       0.12763850       0.03273319       0.02222169      -0.10801479
Se      15.62934122       9.39553441       0.11787243       0.07602949       0.00831416      -0.03304687
Se       4.12730630      13.56554606       0.08146076      -0.07353265      -0.02840108       0.05670924
Se      15.63721221      13.54323416       0.11999401       0.06700300       0.06565701      -0.07517852
Se       4.11759850       1.05315822       4.45737741       0.04752274      -0.06673222       0.04219448
Se      15.61652011       1.04576902       4.46606249       0.01797722      -0.00558218      -0.01571659
Se       4.11098836       5.21809723       4.49407288      -0.03188657       0.00946984      -0.10695724
Se      15.64039044       5.22774561       4.47483789      -0.02101560      -0.03427431      -0.02939739
Se       4.13069839       9.38943904       4.44585091      -0.08502631       0.00300112       0.09074649
Se      15.63015932       9.39945712       4.45670052      -0.01076326      -0.04933061       0.07539649
Se       4.11414011      13.55851120       4.48141881       0.02331231       0.02637636      -0.04840800
Se      15.63953976      13.57194431       4.47261454       0.02283799       0.03367920      -0.03991786
Se       4.11553127       1.04513704       8.81565056      -0.00486886      -0.00240228       0.04977453
Se      15.61018077       1.04466229       8.83074230       0.07164129      -0.02781280      -0.02415487
Se       4.12799641       5.23296398       8.84320239      -0.03918492      -0.07162655      -0.08778649
Se      15.62206495       5.21372797       8.83230575       0.07106677       0.02272800      -0.03219628
Se       4.14122281       9.40614075       8.83869637      -0.12919921      -0.07376896      -0.02776634
Se      15.62816731       9.38250776       8.83539148       0.01784356       0.04908224      -0.00505432
Se       4.10489715      13.56304454       8.82635462       0.01865557       0.05613991      -0.02891315
Se      15.64797431      13.56188193       8.80310991      -0.09209373      -0.00037540       0.12113241
Se       4.12094821       1.03617126      13.18903259       0.00808134       0.07327285       0.06158847
Se      15.63117814       1.04042444      13.19650969      -0.02335085      -0.02478749      -0.00196776
Se       4.10057512       5.21208048      13.19544666       0.06573939       0.00496708      -0.02792342
Se      15.62590434       5.20116255      13.19529184       0.00970217       0.09385028      -0.02004961
Se       4.12713471       9.39088981      13.16899783      -0.02555688      -0.00765608       0.10306459
Se      15.63910488       9.37474088      13.19169427      -0.02292455       0.07508936       0.00538143
Se       4.10702913      13.55383051      13.18418718       0.04550898       0.04735987       0.04097988
Se      15.63021221      13.55898682      13.19449331      -0.02035137       0.03254984       0.03159713
Se       7.39432924       3.14000796       4.25749331       0.03634230      -0.07483690      -0.00120539
Se      18.90795578       3.12154665       4.23820662       0.07195003       0.02705821       0.07411631
Se       7.40169726       7.30074931       4.23095963       0.00462961       0.00567044       0.09197436
Se      18.90957420       7.29528485       4.27043836       0.02597135       0.02189284      -0.05523975
Se       7.38176215      11.46397082       4.26578128       0.09052969       0.06991850      -0.04528058
Se      18.92849898      11.47093450       4.24836072      -0.09940205       0.06386360      -0.00499409
Se       7.40495229      15.62920247       4.23606965      -0.06338306       0.07059096       0.10206826
Se      18.91212402      15.66797238       4.25032428      -0.03714468      -0.05746905       0.01818571
Se       7.39979930       3.14154394       8.63685431      -0.02115515      -0.07222649      -0.06579970
Se      18.90916287       3.13003768       8.63400601       0.02476338      -0.02444754      -0.07463836
Se       7.38356794       7.31457100       8.60560231       0.06912304      -0.06250292       0.08252259
Se      18.91595608       7.30186900       8.60620535      -0.08747503       0.01128773       0.00743750
Se       7.38895891      11.48114847       8.62574086       0.10843540      -0.00440577      -0.06307031
Se      18.91363399      11.47908546       8.62149720       0.03686917      -0.00620581       0.00083901
Se       7.38907374      15.65987040       8.62397889       0.00643385      -0.01809056      -0.00530977
Se      18.94096761      15.64871243       8.61120464      -0.09424441       0.01955838       0.00931129
Se       7.40647959       3.13839709      12.97153847      -0.09316122      -0.01488349       0.05451180
Se      18.91089972       3.13561736      12.96861350       0.05285595       0.00019347       0.04164681
Se       7.39468459       7.30519112      12.98684873      -0.02102143      -0.00414213      -0.04620240
Se      18.90888537       7.28587135      12.95772337       0.07717798       0.06784233       0.07067581
Se       7.38619580      11.46525265      12.97534323       0.10175247       0.05925187       0.00539454
Se      18.90304255      11.47135678      12.96914848       0.03171619       0.05676534       0.02634274
Se       7.39438485      15.66569851      12.98350882       0.07214648      -0.09424299      -0.02430856
Se      18.91509265      15.64786321      12.97255702       0.03924717      -0.01638020       0.01803582
Se       7.40206740       3.13604774      17.32891705      -0.02143683      -0.02734947       0.02973007
Se      18.91529616       3.10988985      17.34011036      -0.03214979       0.09444504      -0.02381456
Se       7.40641142       7.30149450      17.35615849      -0.02768247       0.03381432      -0.09569128
Se      18.90611897       7.30646959      17.33763497       0.04711490      -0.00331622      -0.02920821
Se       7.39778695      11.47724111      17.33906427       0.01420349      -0.05257122      -0.03478274
Se      18.92341094      11.49216169      17.33797072      -0.07264258      -0.04576302      -0.01010221
Se       7.40694309      15.64545580      17.34565278      -0.00026996      -0.03757055      -0.05931139
Se      18.90731144      15.66338007      17.36009963       0.02899629      -0.07192925      -0.10356772
Se       1.63949838       3.10828062       2.28036585       0.00201384       0.11982946       0.00473092
Se      13.16917939       3.13573682       2.28833572      -0.06352902      -0.00516512       0.03454325
Se       1.65080591       7.30913972       2.29802383      -0.00610011      -0.01607885      -0.05210153
Se      13.16605488       7.31951219       2.28943454      -0.06230560      -0.06987092       0.03725640
Se       1.64977182      11.47531306       2.27983197      -0.02646634       0.05132504       0.03450963
Se      13.17392832      11.48054638       2.29389539      -0.11173357       0.02701018       0.00893448
Se       1.64195662      15.64660831       2.28595641       0.01710220      -0.02219237      -0.02215515
Se      13.17122058      15.65802587       2.26873185      -0.05008413      -0.01751181       0.09524163
Se       1.63856678       3.14802899       6.64481249       0.02640737      -0.03081650       0.03179379
Se      13.13885585       3.14913654       6.65377439       0.06666934      -0.05537745      -0.07703425
Se       1.64001909       7.30058101       6.65777398      -0.01373879       0.03875484      -0.01646289
Se      13.15144081       7.31577775       6.65237241       0.04324095      -0.02726103       0.02024591
Se       1.64316604      11.47983948       6.64520078      -0.05932837      -0.02175160       0.02676633
Se      13.16731704      11.46973090       6.63073121      -0.08300078       0.04935664       0.05213297
Se       1.64686362      15.65878585       6.65175287       0.04321531      -0.05561300      -0.04345039
Se      13.16093793      15.64926807       6.65482529       0.05624769       0.01422319      -0.04434524
Se       1.64026364       3.12533491      11.00493543       0.04964622       0.02953951       0.01760471
Se      13.17706704       3.11285629      11.01305222      -0.11196343       0.06065184      -0.00827007
Se       1.62392812       7.30321286      11.00371807       0.10177600       0.02156632       0.01077640
Se      13.13601036       7.30818557      11.00425396       0.12989252       0.02750066       0.03297562
Se       1.61972716      11.48678001      11.02240440       0.05901698      -0.04588278      -0.05228816
Se      13.17176188      11.48197389      11.00851492      -0.08382769       0.01490763       0.00906100
Se       1.65400079      15.66929731      11.01939003      -0.08157727      -0.05585098      -0.04244528
Se      13.14744527      15.65448692      11.01244950       0.04696290      -0.03891901       0.00748915
Se       1.62262305       3.13489966      15.39188814       0.08026147       0.00297593      -0.03995485
Se      13.16326000       3.14494018      15.37098737      -0.07457889      -0.07305001      -0.01394700
Se       1.63998704       7.30810790      15.36099996      -0.00427627      -0.04664046       0.05090949
Se      13.14722289       7.31695824      15.38288165       0.00675926      -0.06045018      -0.05725921
Se       1.63080816      11.48806432      15.36828862       0.06678005      -0.03977084       0.05760325
Se      13.16025873      11.48298652      15.37910173      -0.02766485      -0.00587220      -0.06237103
Se       1.64154640      15.66657509      15.37225235       0.00857688      -0.03458989       0.01025662
Se      13.16310248      15.64414084      15.39074481      -0.04830151       0.02275651      -0.06167500
Se       9.87867272       1.05029145       2.05804778       0.03148271       0.00462729       0.05496822
Se      21.38188888       1.05554032       2.07699855       0.01362406      -0.03120873      -0.01810305
Se       9.85483668       5.22763352       2.06869181       0.17526154      -0.04088803       0.04221632
Se      21.40422907       5.21637226       2.07617671      -0.05591121       0.00500074      -0.02103567
Se       9.88576402       9.38236483       2.06420117      -0.01450834       0.05614468       0.02695070
Se      21.38815091       9.39961149       2.06082087       0.05182153      -0.05424031       0.07198597
Se       9.85729413      13.57366611       2.06809986       0.10822610      -0.06402916       0.02916958
Se      21.38619364      13.54686080       2.06733985       0.01705224       0.09811935       0.01702234
Se       9.87389880       1.05246526       6.42752122      -0.03088102      -0.02531890       0.02411803
Se      21.40668966       1.03631592       6.42840260      -0.07874486       0.03071365       0.00278043
Se       9.88934805       5.21936522       6.42971327      -0.04770967       0.00255719       0.03050182
Se      21.38856456       5.23078136       6.44989555       0.04445621      -0.06752239      -0.02794836
Se       9.86580654       9.39091542       6.43613509       0.02531160       0.04923411      -0.02160748
Se      21.38025349       9.39078291       6.43528675       0.04440179      -0.00521972       0.01116944
Se       9.88537657      13.57750315       6.43194143      -0.08769858      -0.05641862      -0.03782331
Se      21.38797636      13.57207182       6.42938164       0.00481495      -0.02182334       0.03218473
Se       9.87986088       1.04228242      10.78664342      -0.05392515      -0.01352508       0.04748621
Se      21.38054753       1.05763207      10.79477319       0.10689911      -0.06091890       0.06415465
Se       9.89037802       5.21211426      10.79924945      -0.10733076      -0.01554578      -0.07636136
Se      21.41404266       5.20667675      10.77735926      -0.05322116       0.04634396       0.05500353
Se       9.88684038       9.38307167      10.79613034      -0.06423839       0.04333645       0.00159798
Se      21.38425671       9.39402139      10.78683204       0.01550690      -0.02450264       0.03751788
Se       9.87217507      13.56992705      10.78625431       0.05635538       0.00995342       0.04942688
Se      21.38311506      13.56195507      10.78204925       0.05039374       0.01307126       0.07710498
Se       9.86974887       1.04434945      15.15344579       0.00259849      -0.05991937      -0.03422217
Se      21.38740213       1.04296246      15.15088385       0.03824240      -0.01864669       0.02238564
Se       9.88088510       5.23161040      15.15279748      -0.09274770      -0.05073419       0.00750900
Se      21.39496788       5.21485445      15.16109616      -0.00830950       0.02546115      -0.02429679
Se       9.88963227       9.39642636      15.13970714      -0.08366634       0.02071518       0.04419379
Se      21.39465585       9.40366840      15.15522532       0.06048120      -0.04374565      -0.00814123
Se       9.88393082      13.55852774      15.14258589      -0.03531948       0.00170122       0.06995367
Se      21.39152759      13.54786413      15.15504357      -0.03662933       0.13138310      -0.01358900
Sn       7.13684787       1.02406385       1.76869885      -0.04473585       0.08029202       0.01699009
Sn      18.62980054       1.04252828       1.77783665       0.01704934       0.02985852       0.07638032
Sn       7.13797081       5.22679410       1.78644654      -0.11790435      -0.07042498       0.00928245
Sn      18.64157717       5.22118292       1.77287399       0.02284342      -0.02896248       0.02599551
Sn       7.13255155       9.38021932       1.78984758      -0.01354157       0.02555683       0.00537302
Sn      18.65198229       9.39344841       1.77973168      -0.04250994       0.00817838       0.00619988
Sn       7.12798254      13.53681372       1.78451640      -0.07279855       0.07136464       0.01325873
Sn      18.63898732      13.56492262       1.78855914      -0.02230484      -0.00174543       0.00309532
Sn       7.12323175       1.03175941       6.14118367       0.03682010       0.00312007      -0.05418309
Sn      18.64079642       1.04431082       6.14421689       0.04319887       0.02558428      -0.01042651
Sn       7.13437313       5.20639027       6.14435470       0.02239354       0.05517083       0.00498487
Sn      18.65302016       5.19990451       6.14439416      -0.05708871      -0.00289457      -0.01219071
Sn       7.11812566       9.38763266       6.13354962      -0.03079699      -0.05242181       0.04048430
Sn      18.63842536       9.40975232       6.12995339      -0.02749626      -0.05095019       0.05804100
Sn       7.11228334      13.55240955       6.15987188       0.07910179       0.01875806      -0.04074535
Sn      18.63549747      13.56517251       6.13856987       0.04137558       0.00039375       0.01031635
Sn       7.11453521       1.04080997      10.52828401       0.06486830       0.00045934      -0.03889152
Sn      18.65404157       1.03463210      10.51017732      -0.09144542       0.01760574       0.00688175
Sn       7.11566421       5.19948694      10.51389668       0.06318076       0.10177524      -0.04124667
Sn      18.65172179       5.22771114      10.49900292       0.00744017      -0.03793679       0.04845185
Sn       7.12231169       9.39883742      10.50761654       0.06779233      -0.03443864      -0.02011834
Sn      18.63618449       9.37514904      10.50484033      -0.00047865       0.07179178      -0.01491475
Sn       7.13476954      13.55345302      10.51008917      -0.08223183       0.03810764       0.00749073
Sn      18.64343628      13.57293038      10.51242133      -0.02593886      -0.04153756      -0.04054290
Sn       7.11703479       1.02699189      14.85947026      -0.00685244       0.07060035       0.04254080
Sn      18.64901214       1.03774144      14.85786502      -0.04906329       0.04398701      -0.00891942
Sn       7.10576594       5.23477710      14.87306259       0.11462665      -0.04920554       0.01178224
Sn      18.64781982       5.22692787      14.87057254      -0.04945420      -0.04878195      -0.03337043
Sn       7.12153615       9.38970212      14.86052981       0.06714044       0.01079873       0.01948623
Sn      18.66646827       9.39689888      14.86016745      -0.09428350      -0.04188718      -0.01458517
Sn       7.12863441      13.55532021      14.87985052       0.04689805       0.01477518      -0.05695350
Sn      18.63351017      13.57043975      14.87546523       0.02218793      -0.04443436      -0.04481805
Sn       4.39456194       3.13115075       2.57859043      -0.01818739       0.05276711      -0.02854892
Sn      15.90629126       3.12443907       2.57398757       0.04739210       0.05302972       0.05221331
Sn       4.40551016       7.30320982       2.57062445      -0.05077716      -0.05708865       0.02199356
Sn      15.90169270       7.31529890       2.58523848       0.09222241      -0.03542946      -0.02099671
Sn       4.39631755      11.47580912       2.58421603       0.02884889       0.01852197      -0.02148311
Sn      15.90042006      11.47578819       2.58818045       0.09044741       0.03921484      -0.03641059
Sn       4.39945703      15.64265437       2.56992714      -0.05997078       0.01024591       0.01405066
Sn      15.90794270      15.66973479       2.55932676       0.04679678      -0.05086970       0.07754160
Sn       4.39349758       3.11644562       6.93324298      -0.01968201       0.10457995       0.02851283
Sn      15.90321139       3.12600097       6.93424833      -0.08040462       0.00181024       0.02538080
Sn       4.39078632       7.29894263       6.92496172       0.01559523       0.00844369       0.06252323
Sn      15.91465437       7.31182391       6.94801803      -0.03102158      -0.03972290      -0.00802064
Sn       4.37530691      11.48137351       6.94634608       0.09167212       0.00877852       0.00042369
Sn      15.89654365      11.47847606       6.93842362       0.08928695      -0.04290028      -0.01540635
Sn       4.40913576      15.67171843       6.92294273      -0.09515535      -0.08319539       0.06011171
Sn      15.93179494      15.64332121       6.94939302      -0.09852436       0.07098618      -0.02706624
Sn       4.40041923       3.12024915      11.30562285      -0.06753640       0.05211988      -0.02053244
Sn      15.90578034       3.13574935      11.30299689       0.07665373      -0.03929955      -0.01047764
Sn       4.40267765       7.30504919      11.29901143      -0.10888124      -0.05572839      -0.03906028
Sn      15.91781632       7.31009915      11.30800830      -0.11081318      -0.07584764      -0.00538723
Sn       4.38406839      11.46793170      11.29501295      -0.04769032       0.06189131      -0.06443495
Sn      15.90064746      11.48624632      11.31045001       0.08867971      -0.05342934      -0.02758213
Sn       4.38916295      15.66678266      11.31437486       0.04680027      -0.09524737      -0.06745646
Sn      15.90928966      15.64425455      11.31644394      -0.01678874       0.05104791      -0.03310410
Sn       4.39010408       3.13146770      15.65839800      -0.04124111      -0.01017770       0.09896722
Sn      15.89795777       3.11551966      15.66812273       0.06475324       0.09765225      -0.05780565
Sn       4.38288024       7.33489050      15.65093331       0.01057894      -0.07892489       0.09462876
Sn      15.89428185       7.30939658      15.67708718       0.01983058      -0.00937980      -0.02986828
Sn       4.39136015      11.48410675      15.64335857      -0.02242754      -0.03452289       0.05767383
Sn      15.90008056      11.46764817      15.64284359       0.01433543       0.00044631       0.05771541
Sn       4.39188406      15.63004519      15.64857209      -0.00090504       0.10280575       0.05238946
Sn      15.90148374      15.64416061      15.66575813       0.04544336      -0.00471910       0.01999485
Sn      10.15184077       3.13914404       3.96956959      -0.05072275       0.01281163      -0.04116183
Sn      21.67633451       3.13018687       3.96508042      -0.06082981      -0.00270602      -0.00689209
Sn      10.15390010       7.30571176       3.95807381      -0.01961134      -0.02889425       0.01310003
Sn      21.66160196       7.29611961       3.96626192      -0.02557584       0.05367679      -0.03077971
Sn      10.14784481      11.47175259       3.95542331      -0.04009237       0.03319327      -0.00802616
Sn      21.65282240      11.48817274       3.96283193       0.11015122      -0.05120459       0.01118030
Sn      10.14015696      15.66055895       3.95644127       0.03069281      -0.00776903      -0.00578510
Sn      21.65086138      15.66268569       3.95667479       0.06743799      -0.02826570       0.00248714
Sn      10.14469597       3.13061785       8.33457553       0.02924454       0.01309341      -0.03948278
Sn      21.66512676       3.11821488       8.32858841      -0.01827776       0.01942693      -0.01036584
Sn      10.14393507       7.32317443       8.32313844      -0.05847868      -0.04086874       0.00796555
Sn      21.64257603       7.30786884       8.34259561       0.09015432       0.02316676      -0.02256306
Sn      10.16454417      11.49669387       8.31295203      -0.08718010      -0.04677774       0.01374298
Sn      21.67404791      11.47116438       8.32539253      -0.07904076       0.03645808      -0.03006796
Sn      10.13605544      15.64602891       8.31638717       0.01694218       0.06340441       0.01366642
Sn      21.67391194      15.66048066       8.32591783       0.05503216      -0.03784410      -0.02076132
Sn      10.13528075       3.12708966      12.67679235       0.08830519      -0.00159689       0.03310387
Sn      21.67362314       3.14198790      12.69481737      -0.07047413      -0.03444265      -0.03848898
Sn      10.14123277       7.27689986      12.66658390       0.04738326       0.08230186       0.07314417
Sn      21.67914265       7.30028264      12.67674627      -0.05781606       0.00615295      -0.04481633
Sn      10.16521157      11.49103593      12.68449800      -0.10940064      -0.05365238      -0.02577786
Sn      21.66199235      11.47706332      12.68652514      -0.02168931       0.01078546      -0.03432811
Sn      10.16478544      15.65669814      12.69151381      -0.09498066      -0.00294576      -0.05023306
Sn      21.67661909      15.64077671      12.69180213      -0.04172120       0.03393588      -0.06775887
Sn      10.14583928       3.10504510      17.02407570       0.01926351       0.11557177       0.04436203
Sn      21.65474521       3.13551828      17.04649539       0.02969429      -0.04222643       0.01785215
Sn      10.15062863       7.32380462      17.03266650       0.04583689      -0.04600511      -0.00613902
Sn      21.66465205       7.30733955      17.03799466      -0.01516763       0.02695753       0.03809234
Sn      10.14906823      11.46238484      17.05945646       0.01715658       0.03893783      -0.06191533
Sn      21.65811024      11.49869833      17.04503265       0.04963603      -0.07019805       0.05403713
Sn      10.15906550      15.65194044      17.04504996      -0.01193441      -0.02296771      -0.00770010
Sn      21.65908609      15.65366471      17.04853738      -0.00810500      -0.00135034      -0.01417824
Sn       1.35806615       1.04191104       0.39182948       0.06164018      -0.03254097       0.03514469
Sn      12.90504679       1.04226417       0.41338279      -0.12541917       0.05292713      -0.08137542
Sn       1.36395251       5.21984350       0.38471683       0.07036746      -0.00935846       0.10242869
Sn      12.87757943       5.21935597       0.41379051       0.00400785       0.00656838      -0.06258194
Sn       1.36812856       9.40517696       0.40433776      -0.02313598      -0.06718779       0.00752624
Sn      12.89832417       9.39074934       0.42183270      -0.07380559       0.04086592      -0.09311679
Sn       1.36105477      13.55776428       0.38582994       0.06224329       0.04703690       0.05577977
Sn      12.90536040      13.57362338       0.39458926      -0.07400380      -0.06561073      -0.02718507
Sn       1.37839896       1.05003840       4.77869562      -0.05879891      -0.02916458      -0.05286350
Sn      12.86657182       1.04050788       4.75440914       0.03125260       0.02399488       0.09436076
Sn       1.34617191       5.22785389       4.75633038       0.08582298      -0.00525632      -0.01742974
Sn      12.88944646       5.24084834       4.75550191       0.01416221      -0.05518908       0.04349661
Sn       1.36169720       9.39252640       4.76890682       0.04602593      -0.03067362      -0.04233590
Sn      12.87638302       9.38503014       4.76960624      -0.00156481       0.01145295      -0.04574190
Sn       1.36969513      13.54498162       4.74678043      -0.02019622       0.11383928       0.01768126
Sn      12.89706251      13.56944818       4.75141239      -0.02521430       0.02040803       0.02542783
Sn       1.36420464       1.04329385       9.12749556       0.00350001      -0.01698285      -0.03077115
Sn      12.86846752       1.03475199       9.12286779       0.00024053       0.02650946      -0.04086255
Sn       1.36491039       5.22296921       9.10784316       0.05814654      -0.00420565       0.03919468
Sn      12.88562144       5.22816646       9.12500641      -0.03844251      -0.05943851      -0.00427090
Sn       1.36729985       9.39038092       9.11178972       0.07881663       0.00768928       0.07262972
Sn      12.88133017       9.40393682       9.11894794      -0.01242420      -0.03473007       0.01005451
Sn       1.35701069      13.56050643       9.12214673       0.03838074       0.05423779       0.04332989
Sn      12.87831501      13.57028193       9.12536667       0.06600403       0.01386742      -0.02671408
Sn       1.37479856       1.05739707      13.49120070      -0.04818917      -0.01057925      -0.03460617
Sn      12.87270776       1.03412614      13.48048439       0.06014905       0.05707402       0.04724662
Sn       1.36139698       5.20586735      13.47682519      -0.00897195       0.02188037      -0.00663861
Sn      12.87730502       5.21053214      13.47808421       0.01066001       0.04497482       0.02932737
Sn       1.37769324       9.39333214      13.50596020      -0.04444862       0.00782387      -0.12440534
Sn      12.88375523       9.38843910      13.48128344      -0.00099781      -0.00443816       0.03045043
Sn       1.36847365      13.56978144      13.50200922      -0.04415977       0.01927278      -0.09264148
Sn      12.87359695      13.57401936      13.48331962       0.03081821      -0.03533586       0.04896401
256
Lattice="23.03228284 0.0 0.0 0.0 16.696356560000005 0.0 0.0 0.0 17.44441552" Properties=species:S:1:pos:R:3:forces:R:3 mlfcs_configuration_id=4 mlfcs_sampling_method=gaussian pbc="T T T"
Se       4.10013809       1.05076818       0.11897644       0.18156162      -0.02230388      -0.09124797
Se      15.62341872       1.04297185       0.08904666       0.06188646       0.02128168       0.07533639
Se       4.10326100       5.22763063       0.10163604       0.05245027      -0.01012149       0.00560204
Se      15.62090246       5.21944494       0.10107608       0.08005524       0.02418619       0.02244256
Se       4.11114085       9.39863273       0.09468287       0.01121227      -0.02535538       0.02648747
Se      15.62293683       9.39278027       0.11599430      -0.03126881      -0.05303115      -0.02937980
Se       4.12823067      13.55867799       0.11567397      -0.04919447       0.04881868      -0.01519712
Se      15.62414906      13.58359071       0.09496249       0.06520923      -0.06048522       0.02711494
Se       4.12913385       1.03649633       4.48753655      -0.03626341       0.04286719      -0.06595129
Se      15.63790369       1.03290103       4.46218170      -0.08042406       0.01988430      -0.00704051
Se       4.12366088       5.22767678       4.46669693      -0.02312212      -0.08528474       0.01935952
Se      15.63243707       5.22473386       4.46872207       0.00389172      -0.03912374       0.00680005
Se       4.10291402       9.38310973       4.46975528       0.06695027       0.04092739      -0.00164773
Se      15.64414531       9.40739930       4.47519938      -0.03216778      -0.07647889      -0.04446215
Se       4.11872197      13.57281675       4.46073658      -0.03521424      -0.00334703       0.03127063
Se      15.63045818      13.55708730       4.45491666      -0.01336047       0.06822097       0.05856132
Se       4.11918456       1.04491632       8.83538449      -0.02972871       0.03557679      -0.01768507
Se      15.63745160       1.04548763       8.83407413      -0.03582910      -0.04318804      -0.01084427
Se       4.11542224       5.22127925       8.82124652       0.01947615      -0.03015732       0.02901103
Se      15.63568755       5.22383451       8.82181115      -0.03441820       0.00130159       0.06592923
Se       4.11636739       9.38500345       8.82324290       0.03542421       0.03273760       0.02768955
Se      15.62074119       9.40389722       8.83916482       0.06656810      -0.04563790      -0.07243948
Se       4.12122341      13.58505057       8.82661551      -0.00618530      -0.06312076      -0.01902785
Se      15.66230811      13.56305332       8.83105990      -0.13812870       0.01185753       0.07334267
Se       4.11187129       1.04678445      13.19796799       0.01886096       0.01642545      -0.05393097
Se      15.63085132       1.06082839      13.19200334       0.00018982      -0.06925535       0.00964671
Se       4.11855392       5.20806035      13.19379683      -0.02804666       0.05272008      -0.01481825
Se      15.63065021       5.21106793      13.18184710      -0.00145203       0.05343589       0.03683375
Se       4.14256670       9.38860470      13.17504199      -0.11092298       0.04982606       0.05917844
Se      15.62500827       9.39072379      13.19507851       0.12361891       0.00936524      -0.03291950
Se       4.12139703      13.57209476      13.18316324       0.02340497      -0.04684883       0.01549729
Se      15.63539489      13.55656802      13.18341541      -0.01787352       0.03002234       0.04238608
Se       7.38955814       3.11822187       4.26632924       0.08836754       0.02774068      -0.04180305
Se      18.92176277       3.13987242       4.25608027      -0.00504095      -0.04480907      -0.01290497
Se       7.40650331       7.28658201       4.26431802      -0.01635478       0.07480182      -0.01902813
Se      18.91664785       7.31046600       4.25948738       0.06261891      -0.01498217       0.00940017
Se       7.38886468      11.46330364       4.24856660       0.04034387       0.04979403       0.05270329
Se      18.92052583      11.48518496       4.24200772      -0.00457824      -0.02031692       0.05323664
Se       7.38892424      15.64514082       4.25211409       0.04137612       0.05432617       0.03139065
Se      18.90125614      15.63815266       4.24746879       0.08211447       0.08819984       0.01824367
Se       7.39959777       3.11829982       8.61563299       0.00670729       0.03582637      -0.03541182
Se      18.92546218       3.11708796       8.61472657       0.02797657       0.07152157      -0.02673755
Se       7.40898280       7.30001222       8.61105433      -0.06725789       0.00206319       0.02634595
Se      18.92651161       7.30113288       8.62783597      -0.02398411       0.02442356      -0.03775030
Se       7.40302489      11.47485560       8.62158793      -0.03890861      -0.01013812      -0.04495450
Se      18.91808115      11.48849287       8.61130757      -0.00478120      -0.04865389       0.02233547
Se       7.39914729      15.65175803       8.62383251       0.02635712      -0.00230786      -0.00640026
Se      18.90462486      15.66254295       8.62145431       0.01846190      -0.02908900      -0.04074192
Se       7.38556598       3.14218839      13.00023583       0.05499210      -0.07879586      -0.08018343
Se      18.92489499       3.14437561      12.97874862      -0.09073706      -0.03886687       0.00892086
Se       7.38212018       7.28575370      12.98044572       0.06130517       0.04939391       0.00635123
Se      18.90895686       7.29504914      12.97726744       0.01668363       0.05048101      -0.03958211
Se       7.40489109      11.46375647      12.97340613      -0.02324136       0.06061072       0.02007725
Se      18.92997536      11.46753116      12.98659252      -0.05526132       0.03492927      -0.03321403
Se       7.39388793      15.65783112      12.98886818       0.00432315       0.01727606      -0.04726497
Se      18.92228947      15.66146478      12.96637897      -0.03269652      -0.01711484       0.06007311
Se       7.40987183       3.12157883      17.34159420      -0.05846102       0.00074748       0.00334321
Se      18.91745911       3.13495699      17.34236835       0.01526093      -0.00393494      -0.05881846
Se       7.39029713       7.29069623      17.34772227       0.05060246       0.03316908      -0.01503176
Se      18.91673500       7.31568867      17.33855145       0.00814392      -0.00214198      -0.02141650
Se       7.38468359      11.48794534      17.33529508       0.15375481      -0.04202904      -0.03340941
Se      18.91829669      11.47180945      17.35544180      -0.02104187       0.05410968      -0.07703712
Se       7.38996958      15.64899888      17.34007327       0.00505226       0.03142617      -0.05021701
Se      18.90395483      15.65567838      17.35511789       0.02403957      -0.01042659      -0.11529413
Se       1.63575990       3.13405719       2.25935779       0.06468154      -0.02786954       0.12164831
Se      13.15641665       3.12697534       2.27866717       0.00108548       0.00455625       0.04426034
Se       1.65147903       7.30093246       2.28507737      -0.03780950      -0.01869579       0.02617393
Se      13.15303401       7.28502674       2.27553228       0.01593275       0.09038834       0.06972539
Se       1.65027546      11.45718454       2.27918899      -0.00803760       0.08671580       0.01845838
Se      13.15280874      11.49572026       2.29453818      -0.03509262      -0.08452852      -0.02619316
Se       1.63509282      15.66541832       2.27944699       0.05437213      -0.03797738       0.02777616
Se      13.16689694      15.63878441       2.29758472      -0.05600287       0.05927537      -0.02149344
Se       1.63660319       3.11982072       6.64578459       0.03200105       0.05620987       0.00338949
Se      13.15957938       3.12515828       6.65349556      -0.05688843       0.03504504      -0.03755134
Se       1.63483458       7.31039863       6.65237824       0.01928562      -0.06344312      -0.02122371
Se      13.15619671       7.29978108       6.64947143       0.06043515       0.03061124      -0.07305427
Se       1.64616706      11.49890203       6.65735023      -0.04698120      -0.11043966      -0.05299453
Se      13.16656584      11.50916916       6.65311561      -0.01382985      -0.12717146       0.00799835
Se       1.64551096      15.65941333       6.63786636      -0.05035879       0.00894248       0.04620572
Se      13.15236693      15.64731149       6.65443216      -0.00393706       0.02830004      -0.00297501
Se       1.63892278       3.13148800      11.01993445       0.03564517      -0.00269172      -0.06047243
Se      13.16543745       3.12848855      11.00235995      -0.00458389      -0.01553293      -0.00605299
Se       1.65201727       7.31193381      10.99299734      -0.11006233      -0.05542875       0.07291920
Se      13.15367440       7.30585006      11.01684820       0.00607500      -0.01625683      -0.02017097
Se       1.64976554      11.48112310      11.01491238      -0.04638794      -0.04416537      -0.07208720
Se      13.15744731      11.47154552      11.00644726       0.02013274       0.06417368      -0.00598263
Se       1.64085443      15.65202639      10.99020417       0.00393815       0.02755708       0.04023637
Se      13.15283111      15.65293524      11.00624620       0.01229021      -0.00670462       0.01122469
Se       1.63819628       3.13498568      15.35937421       0.01185077       0.00481883       0.05579052
Se      13.14052552       3.12662406      15.37780493       0.03800228       0.03841754      -0.01152009
Se       1.65754005       7.31201618      15.35548115      -0.04598383      -0.03235780       0.02174652
Se      13.15448227       7.30676125      15.37193970       0.01532671       0.00349921       0.00658182
Se       1.64605757      11.46911355      15.37081321      -0.02532965       0.02085286      -0.03481515
Se      13.16100917      11.48654075      15.36210660      -0.06286145      -0.03933222       0.03664296
Se       1.63721295      15.62533501      15.36394916       0.03526904       0.09923577       0.08316133
Se      13.15156179      15.64217734      15.37181991      -0.03268549       0.03954378      -0.02815265
Se       9.87336032       1.02046905       2.07729028       0.00410329       0.10508589       0.00224329
Se      21.38077796       1.04791808       2.06231669       0.06859388       0.00563750       0.08508223
Se       9.87421984       5.21431870       2.07816622      -0.04288886      -0.02688178       0.01236894
Se      21.39130817       5.21459869       2.05977248       0.07469065       0.01897553       0.06176057
Se       9.85914770       9.38540060       2.07505241       0.12533098       0.03700133      -0.00382531
Se      21.38397872       9.39749159       2.07234299       0.04580542      -0.04706716       0.01439693
Se       9.86426965      13.56254765       2.07739380       0.00280530      -0.01918338      -0.05086531
Se      21.39331004      13.58411240       2.06844611      -0.00377365      -0.05955552       0.01695544
Se       9.87318499       1.04732243       6.43600485      -0.00050181      -0.04495997      -0.04228718
Se      21.38505502       1.02756862       6.43113074       0.08732332       0.08330645      -0.00902782
Se       9.86318275       5.19988426       6.42828230       0.08416525       0.03775403       0.02463248
Se      21.37959028       5.22298820       6.44225000       0.05178663      -0.04470049      -0.00109526
Se       9.86488098       9.38863719       6.41765666       0.04286194       0.02198679       0.06502897
Se      21.38511780       9.39522929       6.44448846       0.02673826       0.02675244      -0.00174709
Se       9.86678931      13.57584716       6.42108216       0.02399533      -0.06537967       0.02433508
Se      21.37758492      13.57242523       6.45295030       0.10018044       0.01493076      -0.07622910
Se       9.87885410       1.04265777      10.77539113      -0.01636378      -0.00688219       0.10490910
Se      21.36983673       1.04435529      10.79376234       0.11653638      -0.00176991      -0.00499092
Se       9.86286142       5.21780566      10.79849428       0.06062235      -0.01297793      -0.02425407
Se      21.39950536       5.21851635      10.80962691      -0.00862588       0.00269483      -0.06891604
Se       9.87399972       9.39008612      10.80798609       0.01003634      -0.00702103      -0.03790430
Se      21.38027679       9.41938395      10.80109554       0.06989975      -0.12446536      -0.00666213
Se       9.87772807      13.57057957      10.81611433      -0.03765952      -0.04024115      -0.07771380
Se      21.39798627      13.54927805      10.81137767       0.01104127       0.07823270      -0.05563058
Se       9.87051081       1.04413274      15.14565430      -0.02880576       0.02054608       0.06414963
Se      21.39532322       1.03654745      15.15944854      -0.03365384       0.01847064       0.03382945
Se       9.87107879       5.23640046      15.17826945       0.02737944      -0.08292858      -0.05335624
Se      21.39052633       5.21779011      15.15471241      -0.00252710       0.00674535       0.02450213
Se       9.88497984       9.38795027      15.15423347      -0.04490566       0.01850846       0.02175636
Se      21.39984713       9.38585648      15.15806929      -0.02300723       0.00940295       0.03544139
Se       9.85810667      13.57237052      15.17785551       0.13160634      -0.06937310      -0.08899372
Se      21.39727345      13.57994660      15.14998582      -0.02635380      -0.08362303       0.04438278
Sn       7.12628799       1.03362959       1.78022172       0.01443141       0.00841664       0.04381716
Sn      18.64778828       1.04407940       1.76837297      -0.06461321       0.02142084       0.07841702
Sn       7.11077445       5.20333869       1.78741390       0.06195144       0.03186737       0.01354562
Sn      18.66070511       5.23077491       1.76353952      -0.10699954      -0.00931733       0.06686065
Sn       7.13813550       9.40060348       1.76704638      -0.14940454      -0.02439269       0.03594333
Sn      18.63703415       9.40219470       1.78800371      -0.03564880      -0.03489326       0.03438712
Sn       7.11083379      13.57143603       1.76112437       0.00788467      -0.03575048       0.08242795
Sn      18.63783794      13.57670818       1.78268332      -0.00147568      -0.03871575       0.04454072
Sn       7.11893537       1.05195465       6.15335078       0.00450190      -0.07103262      -0.03107431
Sn      18.65316656       1.05180462       6.15441700      -0.11446234      -0.02357041      -0.06241965
Sn       7.13125383       5.21980562       6.14449835      -0.07080088      -0.01899736       0.00196159
Sn      18.63769357       5.20502665       6.13405014      -0.02302064       0.04999912       0.01159935
Sn       7.12110460       9.39365399       6.15801138      -0.01549897      -0.03368480      -0.07660009
Sn      18.63964819       9.40127423       6.15439641       0.02092439      -0.00970846      -0.05462856
Sn       7.12161028      13.57127551       6.14116798      -0.04536688      -0.02234176      -0.03794703
Sn      18.65328752      13.57168705       6.13169842      -0.11028024      -0.02605544       0.00913086
Sn       7.12553999       1.05954231      10.50289483       0.01182296      -0.08385955       0.01851497
Sn      18.64454331       1.04851998      10.49434091      -0.11411400      -0.01254676       0.06412089
Sn       7.12903182       5.20321198      10.49845090      -0.05134907       0.05568870       0.02735879
Sn      18.65082339       5.22071789      10.50166236      -0.01604394      -0.03820797       0.00471242
Sn       7.12838935       9.39063855      10.50483292      -0.00344417      -0.04129106       0.03926079
Sn      18.64663435       9.38396579      10.50511050      -0.04602907       0.05166922      -0.01188212
Sn       7.12080206      13.54947258      10.49550258       0.02419533       0.07071840       0.04402767
Sn      18.65574823      13.56917584      10.49147125      -0.03986146      -0.00077287       0.05767548
Sn       7.10852120       1.04193955      14.88142288       0.04521159       0.01318994      -0.03203158
Sn      18.63819858       1.05613119      14.86933032       0.04773904      -0.03372792      -0.03657680
Sn       7.12863725       5.20379313      14.87518625      -0.03538098       0.07936645       0.03255149
Sn      18.63671684       5.22578126      14.85766932       0.01546111      -0.02590455       0.05044172
Sn       7.12569524       9.39475950      14.86427068       0.02274609      -0.04432368      -0.00355549
Sn      18.64411162       9.38857550      14.85932042       0.02318943       0.00025841       0.04137719
Sn       7.13997958      13.57581814      14.85820237      -0.13749446      -0.06300855       0.00967640
Sn      18.64575061      13.55790182      14.85396417      -0.00745322       0.04552444      -0.00033923
Sn       4.40099765       3.11306477       2.58875653      -0.04939611       0.04497730      -0.00314237
Sn      15.90427375       3.12799030       2.58358548       0.03762193      -0.02546544       0.02192781
Sn       4.39647154       7.29593147       2.58666523       0.04419263       0.05830127      -0.04096329
Sn      15.90793468       7.29163435       2.57778923       0.01458444       0.06831050       0.01502890
Sn       4.40447235      11.49504999       2.58666146      -0.03081273      -0.07031491      -0.00483662
Sn      15.89489754      11.48319011       2.58799658       0.05916787      -0.01764397      -0.04833069
Sn       4.39791664      15.66022272       2.58312060      -0.04772890      -0.01610975      -0.00383440
Sn      15.90607685      15.64628951       2.56050862       0.04288829       0.02432196       0.06667080
Sn       4.39405597       3.13196629       6.94616761      -0.00944818      -0.00140983      -0.00248411
Sn      15.89342554       3.13655593       6.96113730       0.07308370      -0.05253613      -0.06456551
Sn       4.39144406       7.30357825       6.94368187      -0.00118911       0.00271066      -0.05582379
Sn      15.92712435       7.29395842       6.94262392      -0.10515773       0.07631672       0.00746576
Sn       4.38266298      11.47281399       6.94009595       0.03439189       0.05864156       0.00320024
Sn      15.92027421      11.49629395       6.94507327      -0.00541242      -0.05803607      -0.01720535
Sn       4.38689361      15.67730057       6.93631631       0.04900995      -0.05682957       0.01796550
Sn      15.90108962      15.63462375       6.95455277       0.05364486       0.08431093      -0.05738505
Sn       4.40034201       3.15428382      11.28780050      -0.06425499      -0.08625710       0.07013857
Sn      15.92138268       3.13080712      11.30975673      -0.03369003      -0.01290775      -0.04749712
Sn       4.37418178       7.31887572      11.30956090       0.15714830      -0.07188080      -0.02620876
Sn      15.90641187       7.31064603      11.29404078      -0.01714247      -0.00613102       0.01629171
Sn       4.38486515      11.47364960      11.28316845       0.02953806       0.04053855       0.02203102
Sn      15.91541856      11.49019998      11.29468229      -0.03206077      -0.05373333       0.00381967
Sn       4.39414159      15.64971778      11.30497847      -0.02135261       0.04741624      -0.01046110
Sn      15.90052520      15.64353893      11.31221648       0.02354560       0.05332453      -0.00617368
Sn       4.39002085       3.15032685      15.66326271      -0.01299077      -0.03169939      -0.00645978
Sn      15.89754019       3.14237517      15.66910761      -0.01088800      -0.01339229      -0.05317690
Sn       4.39792828       7.31610091      15.65627165       0.02851006      -0.00589262       0.01908845
Sn      15.90552844       7.30248040      15.64989215      -0.01228040       0.02898595       0.04022471
Sn       4.38802365      11.49164784      15.66517299       0.02639562      -0.03741664      -0.01035783
Sn      15.89334036      11.46272565      15.67944737       0.07253072       0.03932841      -0.02790244
Sn       4.38975637      15.64589908      15.66005969      -0.00933042       0.02012501       0.01601425
Sn      15.89202790      15.66660413      15.65886908       0.05693908      -0.03496454      -0.05330298
Sn      10.16240428       3.13062228       3.97734664      -0.10566644      -0.01489023      -0.07312692
Sn      21.66743863       3.13863809       3.97024225      -0.00896928      -0.03673988      -0.05173627
Sn      10.15496318       7.30767425       3.96072281      -0.02124339      -0.03778419       0.01502168
Sn      21.68402603       7.29512553       3.96309439      -0.10720522       0.03782610      -0.00206245
Sn      10.14887912      11.48230845       3.95875659      -0.05826321      -0.00739618       0.00764872
Sn      21.66801915      11.47659562       3.94723179       0.01384242       0.02116631       0.02545667
Sn      10.14882579      15.64136753       3.94570746      -0.03405978      -0.00270257       0.04420295
Sn      21.66624042      15.65725202       3.96831830      -0.05545943       0.01873579      -0.05102695
Sn      10.15440197       3.11077987       8.31054503       0.01003284       0.04842647       0.05511285
Sn      21.68460690       3.11963367       8.33026361      -0.06080313       0.03467820      -0.03462301
Sn      10.14186089       7.30499163       8.31782265       0.06379301      -0.00921818      -0.02331892
Sn      21.67048710       7.30556264       8.31967230       0.01021803       0.02200053       0.00058508
Sn      10.13822854      11.48096178       8.31202801       0.07066160      -0.01430856      -0.00391366
Sn      21.66914650      11.50454889       8.33765690      -0.00118671      -0.09463616      -0.00860846
Sn      10.15591374      15.65151711       8.30476767      -0.05221680      -0.00018013       0.05932014
Sn      21.65164882      15.66520111       8.31625764       0.04109776      -0.03922897       0.07117102
Sn      10.14173774       3.12844926      12.67463861      -0.00451149      -0.02618690       0.00173303
Sn      21.65260400       3.12960102      12.67634378       0.09449396      -0.01501842       0.05672097
Sn      10.14132008       7.29638299      12.69048268      -0.04142176       0.02132031       0.00834359
Sn      21.66255043       7.30240918      12.69122854      -0.00459482       0.04178589       0.00008106
Sn      10.14730987      11.47550150      12.68996358       0.03745371      -0.01289247      -0.00870495
Sn      21.67155366      11.47681331      12.68606515       0.04419470       0.00228802       0.06280233
Sn      10.14091236      15.64376635      12.69295055       0.01212182       0.07390921      -0.02505544
Sn      21.66932111      15.65692617      12.68806762       0.00314807      -0.00799239       0.01053494
Sn      10.14919230       3.13706988      17.05571404       0.04357080      -0.03046987      -0.02486478
Sn      21.67398397       3.12909798      17.06023288      -0.02657412      -0.02864642      -0.06756120
Sn      10.15101487       7.31051866      17.04918384      -0.04949480      -0.00819551       0.02598844
Sn      21.66734175       7.29683738      17.05337647      -0.00028313       0.01480944      -0.05034267
Sn      10.17718321      11.47453609      17.04707290      -0.14508611      -0.00072240      -0.00828840
Sn      21.66040963      11.47340384      17.06180745       0.02207057       0.01802130      -0.06957921
Sn      10.14200056      15.64763238      17.03048803       0.03757896       0.07927334       0.06441021
Sn      21.65729557      15.63528918      17.05268100       0.00480044       0.07129382      -0.00617879
Sn       1.39385101       1.03939440       0.38226845      -0.18850100      -0.00486488       0.00230994
Sn      12.89099545       1.03579194       0.41192950      -0.09065455      -0.02107764      -0.03300229
Sn       1.36303374       5.21083217       0.39715646      -0.01997233       0.04316513      -0.03518385
Sn      12.88957322       5.21487613       0.39396878      -0.08650797      -0.01826642      -0.03780595
Sn       1.36386572       9.37852092       0.40290635       0.01060495       0.02998783      -0.04231393
Sn      12.86412819       9.38679826       0.40652988       0.06478497       0.01948262       0.01288929
Sn       1.36888452      13.57123182       0.39828557       0.01670550      -0.04711424       0.03318487
Sn      12.89369292      13.57457560       0.40339744      -0.07171247       0.00262423      -0.02579269
Sn       1.37512949       1.05056543       4.75564528      -0.01349760      -0.02530820      -0.03885794
Sn      12.86855646       1.04726481       4.76550080       0.11006501      -0.02567769      -0.00401385
Sn       1.37675875       5.20778712       4.75097560      -0.00420047       0.02177322       0.02813309
Sn      12.88659446       5.21643866       4.74118229      -0.00355562       0.02836348       0.08273065
Sn       1.36960512       9.37271524       4.75058735      -0.03804160       0.09037551       0.03148082
Sn      12.89551227       9.40948826       4.74788335       0.01978821      -0.03969020       0.09060729
Sn       1.36256012      13.56575484       4.77785218       0.01129599      -0.00386643      -0.07827495
Sn      12.87706676      13.56055977       4.77552717       0.00425539       0.03191226      -0.06696451
Sn       1.36210614       1.05028321       9.10637236       0.04261389      -0.01942398       0.07420162
Sn      12.88028313       1.02646522       9.11058945       0.04336634       0.06649156       0.05122370
Sn       1.37424605       5.21665128       9.11795273      -0.03781341      -0.03776172       0.01265853
Sn      12.87450796       5.21494377       9.12415492       0.02066417       0.00742913      -0.00184240
Sn       1.37568320       9.36498800       9.11282618      -0.05673813       0.12532968      -0.01336295
Sn      12.88358642       9.39025084       9.12517755      -0.03822015      -0.00787099      -0.02038767
Sn       1.36852944      13.56227993       9.11587526       0.02089314       0.00901417       0.01772209
Sn      12.87954044      13.57681604       9.11382371       0.06844512      -0.05788635       0.04274308
Sn       1.36522597       1.04489461      13.49785118      -0.00158223      -0.02034744      -0.07142682
Sn      12.87899237       1.05264926      13.49456747      -0.00770256      -0.02240173      -0.02764304
Sn       1.36521649       5.21504314      13.47895713       0.00536772       0.00205388      -0.01572705
Sn      12.87943722       5.22569273      13.48455777      -0.00891422      -0.04360522      -0.00635883
Sn       1.36820693       9.37998724      13.47257277       0.06228606       0.06215438       0.01801946
Sn      12.90342992       9.38946121      13.47449995      -0.11736347       0.01689824      -0.00516205
Sn       1.38016503      13.56814670      13.48802922      -0.05065289      -0.08377602      -0.07185049
Sn      12.88061498      13.56214188      13.48055181       0.01185703       0.00503611      -0.02971830
256
Lattice="23.03228284 0.0 0.0 0.0 16.696356560000005 0.0 0.0 0.0 17.44441552" Properties=species:S:1:pos:R:3:forces:R:3 mlfcs_configuration_id=5 mlfcs_sampling_method=gaussian pbc="T T T"
Se       4.10293717       1.04244177       0.10932199       0.10561231       0.01734045      -0.02454690
Se      15.65141060       1.04418103       0.08301989      -0.07428765      -0.01274190       0.09763574
Se       4.11582470       5.24480522       0.11502532      -0.00517754      -0.16382389      -0.04975126
Se      15.62479708       5.22332124       0.09894152       0.05501639      -0.04895288       0.04914569
Se       4.10322647       9.38801563       0.10727692       0.10062374       0.03046873      -0.03400856
Se      15.61418441       9.38000773       0.10646501       0.10412833       0.06366243      -0.00855234
Se       4.11268282      13.56953657       0.09421498       0.04320952       0.00008949       0.06415787
Se      15.64004711      13.55375087       0.12278900      -0.08026999       0.03407197      -0.09351288
Se       4.09960697       1.03239550       4.47163925       0.05691492       0.02795098      -0.07300420
Se      15.64954830       1.04647147       4.47309412      -0.05217459      -0.02312927      -0.02785883
Se       4.11693992       5.20714620       4.46256415      -0.05696234       0.02629111      -0.00068439
Se      15.62078687       5.20462308       4.47148303       0.06233746       0.04994830      -0.04996992
Se       4.10553277       9.39469486       4.45444731       0.06115140       0.01332657       0.04960756
Se      15.63586980       9.38661249       4.48153169      -0.03844940       0.03378189      -0.04090560
Se       4.12000174      13.57794629       4.45990907       0.04541935      -0.03138180       0.01348458
Se      15.63346740      13.55577759       4.46332949       0.02878277       0.03189804      -0.00159391
Se       4.11414351       1.03606246       8.81641439       0.01821938      -0.00031178       0.00566948
Se      15.61877080       1.01992356       8.81800595       0.04139073       0.09181128       0.04378173
Se       4.12303949       5.20142519       8.81488819      -0.11835387       0.06525810       0.06285779
Se      15.65081496       5.21104522       8.83177988      -0.08573717       0.02108569       0.01552457
Se       4.12318772       9.39812458       8.81334628      -0.01561641      -0.04447987       0.05552152
Se      15.63059537       9.37531705       8.85303260       0.04055971       0.05871011      -0.11238192
Se       4.10081580      13.55511006       8.81816341       0.05340629       0.03655930      -0.00691346
Se      15.61793936      13.57911440       8.85279390       0.11455800      -0.05504301      -0.09289110
Se       4.11200706       1.03011681      13.16730404       0.00919525       0.07527682       0.05797159
Se      15.63046488       1.04015739      13.18316034       0.05853875       0.00646667       0.09220160
Se       4.11897830       5.22136191      13.19290413       0.03125042      -0.02549229      -0.02687651
Se      15.62974472       5.20639396      13.19633163       0.00083590       0.04037870      -0.04436304
Se       4.11688969       9.40038290      13.19757405       0.01334285      -0.06677729      -0.09055170
Se      15.61868835       9.37715710      13.18211789       0.13325311       0.06381675       0.00851929
Se       4.10620190      13.57314098      13.19318640       0.07023115      -0.00557895      -0.03580671
Se      15.64389781      13.56955333      13.19175979      -0.04184269      -0.03366820       0.03215415
Se       7.41164801       3.13506288       4.25642961      -0.01620321      -0.02298795      -0.02035720
Se      18.93059667       3.13151742       4.25270519      -0.02099643       0.02282702      -0.00526511
Se       7.39127248       7.31148500       4.26811910      -0.00770979       0.02733710      -0.09032156
Se      18.91528626       7.31753391       4.23604845       0.02692737      -0.03415438       0.03654351
Se       7.39909618      11.47814294       4.24847865      -0.02349888       0.04040612       0.03153813
Se      18.93963075      11.47788196       4.25167129      -0.19190352      -0.04001250      -0.00274280
Se       7.39991034      15.63260489       4.24814992       0.03719826       0.09404951       0.05342614
Se      18.92562454      15.64634358       4.24745985      -0.01774128       0.00912529       0.02337688
Se       7.41274597       3.14376815       8.62202238      -0.03347730      -0.04421863      -0.03520914
Se      18.91124096       3.12797090       8.60881098      -0.02030625       0.02885331       0.02104676
Se       7.38970298       7.29401058       8.61067193       0.05730809       0.05448625       0.04838312
Se      18.90544493       7.28881770       8.61904650       0.04894169       0.07816966      -0.02182474
Se       7.40199667      11.49555182       8.61016909      -0.07013546      -0.06026381      -0.01294993
Se      18.91875314      11.48167102       8.61431410       0.04199358      -0.02141226       0.01850454
Se       7.40709405      15.66038532       8.62012659      -0.06391131      -0.03339339       0.00179647
Se      18.91323574      15.64905773       8.60317494       0.01314651       0.01413179       0.06201562
Se       7.39159154       3.12414553      12.96671664       0.07261384       0.01127939       0.06532569
Se      18.92019138       3.14233189      12.96887573      -0.04449241      -0.03972355       0.08253351
Se       7.40248513       7.29411364      12.97490714      -0.01251029       0.02226028       0.00897151
Se      18.90888884       7.31047371      12.97116848       0.06230662      -0.03309933       0.05294717
Se       7.40976732      11.47608668      12.97146032      -0.05836634       0.00832909       0.07243946
Se      18.90325908      11.48107593      12.98690854       0.05941974      -0.01277932      -0.00436202
Se       7.40238393      15.67502135      12.99225423       0.01195113      -0.09734091      -0.04382295
Se      18.91271686      15.64945276      12.98265333      -0.01469309       0.01861657       0.03420026
Se       7.39127052       3.14202849      17.34267624       0.05733363      -0.04349229      -0.01172920
Se      18.91835672       3.13723515      17.35628854      -0.02830320      -0.02857637      -0.05280872
Se       7.40136027       7.30332435      17.35414743       0.02292091       0.03616614      -0.07384496
Se      18.92546764       7.30124495      17.33911210      -0.11620918       0.01940025      -0.02106739
Se       7.40160452      11.48216202      17.32549424      -0.07065494      -0.01406772       0.03384799
Se      18.90036729      11.46966999      17.32941285       0.09296980       0.06311087       0.01221474
Se       7.39321248      15.65898014      17.33737095       0.02366391      -0.03081375       0.01756853
Se      18.91775608      15.64039000      17.33444382       0.01757329       0.05417515       0.01519662
Se       1.64745258       3.13631513       2.27966786      -0.03737497      -0.03611864       0.01603215
Se      13.15933805       3.15235409       2.28673762       0.00708172      -0.10606258      -0.00279499
Se       1.63464814       7.30271713       2.28783537       0.04548749      -0.03937233      -0.02446425
Se      13.15620974       7.30414120       2.27247913      -0.04968874      -0.01748531       0.10328440
Se       1.63195370      11.47705054       2.28526092       0.10277495      -0.00407566       0.00595812
Se      13.15205953      11.47677375       2.28752375      -0.00002586       0.00461130       0.01461451
Se       1.65047414      15.65164091       2.29090463      -0.04978191       0.02065910       0.01131661
Se      13.15230542      15.65835399       2.29067090       0.06986841       0.00905542      -0.01738510
Se       1.65023818       3.13750021       6.65390483      -0.07454615      -0.05455008      -0.03101496
Se      13.15673725       3.13281500       6.65865257      -0.07211208      -0.03577010       0.03218862
Se       1.63505926       7.29817067       6.64983179       0.01493878      -0.02157842       0.00364619
Se      13.16187422       7.29621368       6.64726985      -0.06696225       0.00741830       0.01656553
Se       1.64064002      11.45639109       6.64582154       0.03483175       0.10248479      -0.00184028
Se      13.15614825      11.47694096       6.66217662       0.07594786       0.00230242      -0.07203338
Se       1.62942202      15.64438680       6.62189552       0.04307079       0.07009823       0.12488088
Se      13.15291226      15.64867659       6.64291771       0.05785885       0.03444719      -0.02046392
Se       1.65265678       3.13897179      11.00989993      -0.06226706      -0.03944218      -0.02134535
Se      13.15401530       3.14062751      11.00892378      -0.00431915      -0.05866285       0.01460161
Se       1.63339731       7.28729226      11.00470821       0.08047928       0.06642382       0.01850543
Se      13.16526786       7.32722014      11.00973746      -0.04649599      -0.09483906      -0.00489823
Se       1.63392645      11.46669424      11.01464091       0.09303838       0.07356622      -0.02518562
Se      13.14007527      11.48404734      11.01729847       0.06309099      -0.05476534      -0.02992951
Se       1.64594280      15.65043641      11.01477076      -0.04407755      -0.00975462      -0.04300307
Se      13.15943081      15.64485179      11.02762548       0.02853651       0.06486207      -0.02609355
Se       1.63806321       3.13812313      15.34603910       0.01424694      -0.00707418       0.10647413
Se      13.17048613       3.14505325      15.37052358      -0.06036766      -0.08212075      -0.02004267
Se       1.64716772       7.31003990      15.36379740      -0.05085131      -0.01710291       0.04982573
Se      13.16319265       7.29636845      15.36413767      -0.04017684       0.04703312       0.03410919
Se       1.65284944      11.48829047      15.36316148      -0.06169142      -0.01146671       0.03444501
Se      13.15038566      11.47208792      15.37755163       0.06520473       0.02646723       0.01584259
Se       1.63158016      15.65620016      15.37769371       0.09275781       0.00727261      -0.02013771
Se      13.15683897      15.66273367      15.36718214      -0.00596607      -0.05246907       0.04143783
Se       9.87269670       1.03354858       2.08536843      -0.01538100       0.07833291      -0.05010919
Se      21.38331148       1.04681876       2.07448350       0.11558737      -0.00708321       0.03100589
Se       9.86430743       5.21131915       2.08902538       0.08296334       0.00480805      -0.07332550
Se      21.39299326       5.20731868       2.07824994       0.04842772       0.05089697      -0.00501999
Se       9.87337412       9.42603978       2.07804790      -0.00586290      -0.15689038      -0.03145313
Se      21.38717043       9.40569960       2.05678630       0.03079121      -0.03472295       0.02929840
Se       9.87577846      13.58553274       2.07403467      -0.03459751      -0.09193582       0.00668867
Se      21.37364367      13.56162928       2.08974184       0.07709465       0.00490335      -0.08537334
Se       9.87859596       1.03493248       6.42944811      -0.03822797       0.03360254       0.01484066
Se      21.38537968       1.04693302       6.44968250       0.01566738      -0.01364141      -0.07615555
Se       9.88535949       5.22197030       6.42298409      -0.05530131      -0.00733345       0.06976804
Se      21.37769735       5.22274270       6.42284583       0.10186615      -0.00308333       0.01335126
Se       9.87257959       9.39454082       6.42492460       0.01642345      -0.00824358       0.06341725
Se      21.38073406       9.39055811       6.44133704       0.06926493      -0.03240414      -0.00559323
Se       9.88545045      13.57165899       6.43703710      -0.08641200      -0.02481287       0.01326019
Se      21.38351473      13.55487939       6.43119177       0.04023759       0.05061077       0.02252924
Se       9.87893462       1.04668728      10.77640540       0.01006681       0.01008181       0.10021803
Se      21.38311991       1.05536612      10.79819657       0.02108634      -0.00050731      -0.04692882
Se       9.86066517       5.24096839      10.79711500       0.07004331      -0.08424891       0.01960853
Se      21.39482002       5.22140543      10.79372846      -0.08051201       0.03271890      -0.01523563
Se       9.86755952       9.41271607      10.80743648       0.00906377      -0.10582130      -0.01982778
Se      21.39919605       9.39726221      10.78737124      -0.05613335      -0.04422025       0.04808218
Se       9.88761056      13.55715713      10.80023729      -0.08841639       0.03703742       0.00386008
Se      21.37458278      13.54517987      10.80058733       0.11667774       0.09776592      -0.00624370
Se       9.86674427       1.02342936      15.16391439       0.03271921       0.12176911       0.00271278
Se      21.41217749       1.05721664      15.15593512      -0.11936389      -0.07741505      -0.01017633
Se       9.87492371       5.22628724      15.16972958      -0.02159183      -0.08001609      -0.03789609
Se      21.38754132       5.21775196      15.16151445       0.00484312       0.01146890      -0.03588018
Se       9.88037402       9.39016856      15.15730745      -0.02328027      -0.02864485       0.01197277
Se      21.40477500       9.40359453      15.16328240      -0.06071585      -0.03545755      -0.01001209
Se       9.89202635      13.56172400      15.17473803      -0.09656767       0.04687246      -0.12550145
Se      21.39640183      13.59829872      15.14658348      -0.03909383      -0.14457028       0.05949714
Sn       7.11794677       1.04750902       1.78653317       0.03174753      -0.01150862       0.00770474
Sn      18.66048304       1.03663729       1.79161002      -0.08830127       0.00734289      -0.00876458
Sn       7.13646486       5.22445666       1.77295087      -0.11850366      -0.02974277       0.06940411
Sn      18.65505923       5.22970343       1.78855668      -0.06870528      -0.03801892       0.04420594
Sn       7.12688370       9.39376040       1.78177347      -0.00645600       0.03088791      -0.00479977
Sn      18.64738950       9.39181067       1.77407558      -0.05244877       0.00824986       0.03754471
Sn       7.11435431      13.55806810       1.78478215       0.08176211       0.04942957      -0.01328100
Sn      18.64071209      13.56774190       1.78756896      -0.07100760      -0.03060987      -0.03086960
Sn       7.11856702       1.05797764       6.14098760       0.03552606      -0.07049946      -0.03884195
Sn      18.63664738       1.04814490       6.12529961      -0.01268407      -0.01028679       0.03446140
Sn       7.11693488       5.22722091       6.12629049       0.06403103      -0.03076701       0.07671377
Sn      18.65215739       5.23252155       6.13997016      -0.11575918      -0.02606493      -0.01965151
Sn       7.12775835       9.40269019       6.13899682      -0.01608356      -0.02598870       0.03073123
Sn      18.64965940       9.38478783       6.13888869      -0.06175750       0.01485119       0.01973669
Sn       7.11684686      13.56901493       6.15524440       0.09950499       0.01851497      -0.05728839
Sn      18.63914052      13.55287597       6.13283764       0.00428919       0.03733581       0.04766423
Sn       7.12878622       1.06176220      10.50870584      -0.00454030      -0.03566927      -0.00499552
Sn      18.63711268       1.05098288      10.50237360      -0.00780115      -0.02738129      -0.02217811
Sn       7.12105737       5.20782559      10.51885308      -0.01205934       0.05013846      -0.04227458
Sn      18.61558957       5.22538877      10.50013114       0.08598424      -0.05932704       0.01482292
Sn       7.12073682       9.40842247      10.49762728       0.01392746      -0.08034957      -0.00689709
Sn      18.63418096       9.39019538      10.50890707       0.07053565       0.01619249      -0.02386045
Sn       7.12042167      13.54984987      10.49611161       0.06593333       0.10729759       0.05398769
Sn      18.65379499      13.56633623      10.50927946      -0.09658179      -0.00479880      -0.03116156
Sn       7.12222601       1.03672606      14.88264817      -0.00233899       0.03849235      -0.02563468
Sn      18.63909973       1.03888734      14.87683389       0.09307503       0.03305501      -0.06286280
Sn       7.11761662       5.21146291      14.86597494       0.01474848      -0.00705127      -0.02416918
Sn      18.64098435       5.22000629      14.88678916      -0.01117743      -0.00256700      -0.09739637
Sn       7.12820271       9.36771878      14.86913546      -0.00723454       0.05522741      -0.03354379
Sn      18.64136045       9.39193382      14.86833194       0.03117623      -0.00160412      -0.03091505
Sn       7.12455344      13.56506234      14.87200291       0.05155686       0.00692813      -0.05137982
Sn      18.63556084      13.55611160      14.89611029       0.07641752       0.03726356      -0.06623301
Sn       4.38441646       3.13136704       2.56459282       0.05009950      -0.00756406       0.06103576
Sn      15.90888114       3.12103335       2.57512470       0.02630521       0.04159812       0.02045037
Sn       4.40202569       7.30917485       2.58523352      -0.07169348      -0.03308328      -0.02907110
Sn      15.89000441       7.32282370       2.56763061       0.06283955      -0.06539368       0.05867031
Sn       4.40686065      11.48875933       2.58532275      -0.11336215      -0.04403299      -0.02368925
Sn      15.89916661      11.48005979       2.57484021       0.01793311      -0.03005415      -0.00541350
Sn       4.39186543      15.65013431       2.55916332       0.04973114       0.04196485       0.05821588
Sn      15.91893430      15.65182196       2.57470142      -0.06063884      -0.00638533       0.01296384
Sn       4.38597177       3.13395021       6.93171574       0.05194058      -0.03018036      -0.02728598
Sn      15.88516470       3.13443691       6.94584434       0.13691403      -0.02902330      -0.02625549
Sn       4.38957872       7.29297572       6.94154266       0.00025288       0.01732064      -0.01391000
Sn      15.89307113       7.29418244       6.93314633       0.07882325       0.02119459       0.01071444
Sn       4.40001443      11.47491778       6.93617464      -0.05455265      -0.00651214      -0.01784305
Sn      15.92726338      11.48206851       6.94404325      -0.11601112      -0.01528197       0.08398440
Sn       4.38787803      15.64666931       6.91878924      -0.01657127       0.01376254       0.03410563
Sn      15.91740386      15.65711613       6.93886165      -0.06449397      -0.05146698       0.00370648
Sn       4.39020277       3.13772705      11.28621008       0.01991057      -0.02755935       0.03093831
Sn      15.90181765       3.11900258      11.31947228       0.02690412       0.05627667      -0.05178706
Sn       4.40033159       7.28242782      11.28661957      -0.06835841       0.09203223       0.05695051
Sn      15.90639300       7.29973035      11.28851336       0.00213401      -0.01962000       0.03920031
Sn       4.41102266      11.48166929      11.30650535      -0.12524697      -0.01357960       0.03892782
Sn      15.90079631      11.48576663      11.29795286      -0.03690143      -0.02427902      -0.00205475
Sn       4.38874161      15.65874305      11.28546721       0.04644932      -0.03749479       0.01061783
Sn      15.92368674      15.65445692      11.31456663      -0.03602940      -0.03029750      -0.07256855
Sn       4.38082084       3.12113396      15.65124206       0.01875240       0.05609572       0.04082999
Sn      15.91021944       3.13102544      15.65821695       0.02679734       0.04226506      -0.01799637
Sn       4.38143435       7.29178879      15.66237623       0.06598291       0.07467752      -0.01288138
Sn      15.90306059       7.29759868      15.67833196       0.03286701       0.01316086      -0.08228867
Sn       4.39075178      11.49124432      15.65752854       0.02496424      -0.08078226      -0.02343105
Sn      15.91016422      11.47798913      15.64588484      -0.05906076      -0.00498417       0.07613528
Sn       4.40585842      15.65128149      15.67032525      -0.09390617       0.01948681      -0.05766927
Sn      15.90019617      15.65098459      15.65419254       0.02660711      -0.06008421       0.04820135
Sn      10.16200573       3.13347970       3.96678331      -0.02283552      -0.03844273       0.03003653
Sn      21.67936901       3.14192902       3.97076620      -0.03132670      -0.05562666      -0.02527898
Sn      10.13542847       7.29749796       3.95307389       0.04857795       0.05947851       0.05688872
Sn      21.67306251       7.30616127       3.94920765      -0.01482354       0.03100153      -0.02058290
Sn      10.14775831      11.46360277       3.96258121       0.01872955       0.12440725       0.02804679
Sn      21.64923344      11.48383216       3.96689240       0.18929783      -0.02972598       0.03036776
Sn      10.16872523      15.66111176       3.95888363      -0.08494254      -0.05446072       0.03257501
Sn      21.67396787      15.63865639       3.95348805      -0.00673995       0.05390301       0.03758087
Sn      10.15297717       3.10878311       8.32384504       0.00708016       0.08381795      -0.03892597
Sn      21.65558454       3.13137868       8.31343929       0.01441908       0.00725302       0.04168222
Sn      10.15388823       7.30464802       8.33822031      -0.08783202      -0.01019575      -0.07093476
Sn      21.66585451       7.29676832       8.32174779      -0.03946791       0.03761617       0.01768394
Sn      10.13620338      11.48260526       8.33011515       0.10998205       0.00638469      -0.03312777
Sn      21.69047913      11.47232553       8.32153871      -0.09793346       0.01407176       0.00327079
Sn      10.14388816      15.65475417       8.32803356       0.05279716      -0.03329488       0.00138544
Sn      21.66525342      15.66349629       8.31804686      -0.03183059      -0.05532573       0.00300628
Sn      10.15950749       3.13575059      12.68520023      -0.06784772      -0.01266610      -0.04193639
Sn      21.66263780       3.15463229      12.67715044       0.02113099      -0.03902519       0.02798903
Sn      10.15262508       7.29695256      12.70317674      -0.00570540       0.06815344      -0.03916758
Sn      21.67465543       7.29767125      12.69044648      -0.07122258       0.04080520      -0.04989693
Sn      10.15222271      11.47337764      12.69290217       0.03005675       0.01919284      -0.00193874
Sn      21.66968022      11.48070088      12.68490133      -0.05701545      -0.02906445       0.01525386
Sn      10.15395629      15.65492691      12.68591146      -0.02787099       0.00828785      -0.03806099
Sn      21.65937701      15.66957069      12.67481633      -0.00314046      -0.05266435       0.02716603
Sn      10.15392211       3.12716320      17.06401988      -0.05085757      -0.03180992      -0.06093019
Sn      21.65675234       3.12301298      17.03672623       0.05258651       0.01039831       0.05343649
Sn      10.15288040       7.29072424      17.04163913       0.02082542       0.07527274       0.02527259
Sn      21.64426351       7.30685896      17.04142226       0.15388044       0.01262944       0.02715394
Sn      10.13476518      11.48939998      17.03334774       0.08776657      -0.06804750       0.08918848
Sn      21.67375661      11.47153348      17.06244013      -0.06124761       0.08065638      -0.07340966
Sn      10.15714125      15.64255255      17.03725359      -0.03574033       0.03654128       0.08533975
Sn      21.67184242      15.65000925      17.04473099       0.00416319       0.03266068      -0.01778269
Sn       1.37949191       1.03583415       0.39991042      -0.12099333       0.01260224      -0.02981334
Sn      12.89245721       1.05141221       0.39740136       0.02398869      -0.00003296       0.01075669
Sn       1.36388046       5.20002203       0.38843504      -0.00837918       0.09110344       0.02703732
Sn      12.88609453       5.21603136       0.39974676      -0.03711072       0.01461376      -0.06258805
Sn       1.37716205       9.37962609       0.39663568      -0.06784269       0.01923742       0.03040637
Sn      12.88479805       9.38445772       0.41331226      -0.10620057       0.03251498      -0.07315574
Sn       1.37585538      13.56848979       0.41693980      -0.07762927      -0.03670282      -0.05578781
Sn      12.86792198      13.56551120       0.40266086       0.08015720      -0.00296071       0.01672494
Sn       1.35762397       1.04632819       4.74903554      -0.00897194       0.02587335       0.02772134
Sn      12.88981651       1.05389939       4.76282470       0.02690914      -0.06014484       0.00525239
Sn       1.34824154       5.20774224       4.76574847       0.09479539       0.03550103      -0.00854143
Sn      12.88312292       5.19047015       4.77252967      -0.03646495       0.07726378      -0.04408868
Sn       1.36813608       9.38330857       4.77005092      -0.06100561       0.01106703      -0.06361677
Sn      12.87613554       9.38461480       4.76368489       0.03789491       0.04033735       0.03460293
Sn       1.38457990      13.58182433       4.76369848      -0.09208372      -0.14250660      -0.05078858
Sn      12.88753479      13.57350345       4.74753153      -0.02804377      -0.04258399       0.06247279
Sn       1.37321100       1.03598031       9.12439003      -0.01838013       0.04127016       0.01038106
Sn      12.88063626       1.04833312       9.12238628      -0.01857009      -0.07357379       0.04117513
Sn       1.33603921       5.21919910       9.12762677       0.10799531      -0.03163589      -0.02234622
Sn      12.88737022       5.21638432       9.13762686       0.02166572       0.05125210      -0.01617674
Sn       1.36988325       9.39587605       9.13165016       0.00775097      -0.01731242      -0.01852317
Sn      12.88653687       9.38251914       9.09682187      -0.01442205       0.07679370       0.04716250
Sn       1.36199831      13.57319792       9.11767428      -0.01903260      -0.05415978       0.03505870
Sn      12.89092272      13.56707574       9.13408591      -0.09727710       0.00401054      -0.02567162
Sn       1.36381735       1.04799719      13.48736798      -0.01292996      -0.04568793      -0.03634962
Sn      12.89792696       1.02625467      13.47772504      -0.08584672       0.07706536       0.00165971
Sn       1.37525468       5.23286914      13.48470984      -0.04009356      -0.01827011      -0.06852345
Sn      12.87998390       5.22498136      13.49099615       0.01789430      -0.01655676      -0.02843593
Sn       1.36317290       9.39480239      13.49411440       0.03256445       0.03784050      -0.05153018
Sn      12.90181553       9.39892537      13.48275051      -0.12033907      -0.02819143      -0.02491156
Sn       1.36622877      13.57116243      13.48115240      -0.03541312       0.01111376       0.00918270
Sn      12.88480734      13.55500970      13.49527970       0.00820576       0.01052184      -0.04968421
256
Lattice="23.03228284 0.0 0.0 0.0 16.696356560000005 0.0 0.0 0.0 17.44441552" Properties=species:S:1:pos:R:3:forces:R:3 mlfcs_configuration_id=6 mlfcs_sampling_method=gaussian pbc="T T T"
Se       4.10469112       1.04046227       0.10702726      -0.01488055      -0.01386892       0.01878016
Se      15.65214425       1.04055656       0.09939117      -0.05841678       0.03711534       0.06305164
Se       4.11058480       5.23546150       0.07792785      -0.01987030      -0.13047057       0.15367681
Se      15.62220701       5.24618542       0.11196014       0.12896491      -0.10328554      -0.04957333
Se       4.10503312       9.39254249       0.10672587       0.06594084      -0.01264332       0.04372048
Se      15.64069564       9.41135669       0.10993684      -0.00605864      -0.06956298       0.00150782
Se       4.11069508      13.57492166       0.09906880       0.04904882      -0.04542862       0.04261330
Se      15.62190101      13.54945172       0.09040004       0.00657825       0.10045599       0.14759052
Se       4.10712851       1.03300549       4.47028757       0.09746595       0.06853115      -0.04788929
Se      15.62024037       1.01334673       4.45671609       0.05726806       0.12601150       0.03080222
Se       4.11137437       5.21281804       4.48235045       0.00666732       0.01372131      -0.03907435
Se      15.62609896       5.22768177       4.46696538       0.04117466      -0.05474144      -0.02999055
Se       4.11566992       9.38460787       4.46656738       0.03182299       0.05164926       0.01841111
Se      15.62458342       9.39466191       4.46479271       0.04180992      -0.01662980      -0.03804591
Se       4.10664669      13.57696975       4.47142361       0.02104712      -0.03483329       0.00880539
Se      15.62775376      13.56850574       4.46631698       0.08766828      -0.00051312      -0.02286301
Se       4.10741706       1.04548835       8.82204897       0.04313060      -0.01570358       0.04613102
Se      15.62278505       1.02855572       8.82467301       0.05159190       0.09261987       0.01025135
Se       4.12176267       5.21192594       8.85346617       0.01131601       0.03980994      -0.07190075
Se      15.64109124       5.23191583       8.83621151      -0.00376895      -0.06217295      -0.02435032
Se       4.13462161       9.38509165       8.80265171      -0.09945847       0.05911109       0.11697072
Se      15.62777313       9.39854386       8.82977425      -0.04524630      -0.03112799      -0.02589481
Se       4.11884769      13.58025991       8.83207966      -0.05776303      -0.04525696       0.01688804
Se      15.64022351      13.55765518       8.81730515      -0.04347306       0.02811406       0.05649193
Se       4.13223410       1.04579241      13.18313067      -0.04315325      -0.02006333       0.00063257
Se      15.62602044       1.03829216      13.18227337       0.04791899       0.02567498      -0.03462688
Se       4.10326149       5.20386833      13.18741292       0.05033487       0.07342852      -0.04581491
Se      15.62630513       5.22994412      13.19229373       0.05539853      -0.04258271      -0.07668706
Se       4.11874614       9.38553047      13.18815268      -0.00398155       0.02655331       0.01193390
Se      15.63584440       9.40012363      13.18842405       0.05047479      -0.04452082       0.02214806
Se       4.12688420      13.56713070      13.19729143      -0.01018844      -0.02017612      -0.03118676
Se      15.62733586      13.54892493      13.19204655       0.00534049       0.10140163      -0.02052285
Se       7.40623237       3.13758143       4.25966013      -0.08099005      -0.03697476      -0.03404365
Se      18.91163468       3.12376050       4.26095555       0.02162242       0.01445856      -0.01874553
Se       7.40324361       7.30030811       4.26653251      -0.01434686       0.00877973      -0.03821733
Se      18.90629190       7.30008187       4.27180252       0.06055010       0.03536938      -0.07302630
Se       7.40766495      11.47642615       4.25831207      -0.03664042      -0.02264258      -0.00522201
Se      18.91666847      11.45255010       4.24637352      -0.02340107       0.11207494      -0.02379370
Se       7.39847067      15.65052927       4.25790929      -0.02288410      -0.02624941      -0.01780245
Se      18.92641537      15.65088002       4.24486172      -0.07999119      -0.01577807       0.05919532
Se       7.40222765       3.12856173       8.61498151      -0.03761809      -0.02312771       0.02461809
Se      18.91220281       3.15424634       8.59413510       0.03082321      -0.11512681       0.12844415
Se       7.39509579       7.30588021       8.60873072       0.03437913      -0.02934470       0.02942530
Se      18.92411881       7.31404968       8.61606460      -0.00261735      -0.02902631      -0.00634254
Se       7.39627239      11.47888667       8.61549428       0.04575379      -0.03732373      -0.01167199
Se      18.91433682      11.47812625       8.61906664       0.01959226      -0.00060630      -0.01937247
Se       7.40651125      15.64179278       8.60603550      -0.03263193       0.07122428       0.02757831
Se      18.89763537      15.66275936       8.61904538       0.06202743      -0.06410028      -0.00004952
Se       7.40403181       3.11753298      12.99549550      -0.04529910       0.09725538      -0.08658030
Se      18.90903204       3.13351002      12.98618987       0.00901520      -0.00367896      -0.01258842
Se       7.38910933       7.30045386      12.97943774       0.01953456      -0.01027889       0.02446889
Se      18.94369528       7.30892835      12.99370963      -0.17743684      -0.00859306      -0.06411426
Se       7.41103586      11.48368634      12.96775407      -0.03068927      -0.02501499       0.05623428
Se      18.92571809      11.46502514      12.99365477      -0.00957662       0.03015256      -0.07643527
Se       7.40097918      15.62759315      12.97424096       0.00019904       0.09572432      -0.00604490
Se      18.92166003      15.65172514      12.98479608       0.01891177       0.00891061      -0.05315729
Se       7.39047889       3.11876814      17.33803545       0.03544711       0.03200169       0.00970864
Se      18.91543621       3.12834412      17.35102281       0.01879393       0.01413540      -0.03426692
Se       7.39047706       7.30904876      17.33942960       0.06379603      -0.05025655      -0.04908780
Se      18.89955339       7.29272680      17.33886901       0.06270019       0.02270101       0.00573084
Se       7.41879113      11.48579894      17.32149355      -0.07511349      -0.06188846       0.04079665
Se      18.88401567      11.48733678      17.33778777       0.18481849      -0.05626836       0.01547941
Se       7.41039179      15.64528820      17.34225203      -0.07890493       0.02386174       0.00092460
Se      18.92358229      15.64962075      17.33448905      -0.04408403       0.01442731       0.00831606
Se       1.64116105       3.13725473       2.28645992      -0.04589843      -0.04913035      -0.01427179
Se      13.16678980       3.12720861       2.27331931       0.00425953       0.02216361       0.03850108
Se       1.66067818       7.29987076       2.28091884      -0.06902125       0.03414859      -0.00826995
Se      13.15639181       7.30658891       2.28273643       0.07996476       0.01035172       0.01426456
Se       1.64073408      11.47960862       2.28835146      -0.02243398       0.03346511       0.00894279
Se      13.13347497      11.49881500       2.28513038       0.10563960      -0.07843085       0.01734184
Se       1.64671465      15.64031437       2.28189326      -0.01306419       0.06208658      -0.02039509
Se      13.15032668      15.66879262       2.28074513       0.06123863      -0.04937402       0.02389001
Se       1.64848922       3.12532376       6.64318095      -0.03537050       0.03183493       0.06630794
Se      13.15459434       3.14466641       6.62880862       0.06105598      -0.04988335       0.11912354
Se       1.62775179       7.28644405       6.63683212       0.04247502       0.09274919       0.02232426
Se      13.14893384       7.28977229       6.64036567       0.00232272       0.10338209       0.02529325
Se       1.62076128      11.46982635       6.65971135       0.07804709       0.03223981      -0.04598339
Se      13.16108572      11.48188092       6.63767936       0.03322765       0.00908713      -0.00337011
Se       1.62554757      15.64270382       6.64727505       0.02654193       0.04766103      -0.00568504
Se      13.16573161      15.66311906       6.65401327      -0.09237642      -0.01176554      -0.00954007
Se       1.63353285       3.13207346      11.00559760       0.04409790      -0.03160895       0.03948011
Se      13.15503794       3.15219924      10.99119102       0.04997595      -0.08516375       0.10024528
Se       1.63856165       7.31803459      10.99415211       0.00564914      -0.04642943       0.05006531
Se      13.15061237       7.30062672      11.00657813       0.04154800       0.06457242       0.02027484
Se       1.62494885      11.48595910      11.01547390       0.07668175      -0.02688083      -0.04399440
Se      13.16213359      11.47130250      11.00967613      -0.02903510       0.00742564      -0.02351430
Se       1.63191402      15.65076941      11.03034570       0.05815253       0.02500925      -0.07174445
Se      13.15800680      15.64222012      11.01061438       0.02190828       0.02733818       0.00511180
Se       1.62739046       3.11983786      15.35950367       0.05635450       0.02373040       0.04723016
Se      13.15260675       3.14119765      15.37569889       0.03094368      -0.04008984      -0.05135811
Se       1.64613837       7.29492786      15.36450176      -0.08829507       0.06728715      -0.01713224
Se      13.15976985       7.29963390      15.36713124       0.05175094       0.05084399       0.05519716
Se       1.64532201      11.47651851      15.37217550      -0.02805610       0.01934982       0.00573317
Se      13.17297713      11.47828765      15.38170828      -0.09917132       0.00580139      -0.02103257
Se       1.64650212      15.63942296      15.35889353      -0.08099817       0.06443079       0.06037185
Se      13.14871388      15.64554703      15.36901201       0.04311565       0.03537042       0.02009835
Se       9.88031012       1.05733498       2.07796807      -0.05383160      -0.04827716      -0.00730658
Se      21.38584830       1.02396098       2.07559222       0.06333121       0.07622984      -0.02859914
Se       9.87442138       5.22070182       2.09594873      -0.02814805       0.01113842      -0.08121360
Se      21.40271106       5.22672314       2.06526555      -0.06279297      -0.02847466       0.05783305
Se       9.86903373       9.39201323       2.06713225       0.01936076      -0.02000638      -0.00269518
Se      21.39530974       9.39653076       2.06400325      -0.00858197      -0.01466909       0.02760812
Se       9.88613184      13.56807391       2.05759561      -0.03964375      -0.03834683       0.03021239
Se      21.38979167      13.56986288       2.08461425       0.04847795      -0.03897248      -0.10015944
Se       9.87078891       1.05306277       6.43786162      -0.01690751      -0.06109292      -0.00716727
Se      21.37715455       1.03063172       6.44721580       0.08738108       0.08250324      -0.06933412
Se       9.88612352       5.22210162       6.45094727      -0.07100625      -0.03718660      -0.05986863
Se      21.40087119       5.22570882       6.42687709      -0.10971256      -0.02101503       0.04108779
Se       9.89147796       9.39832469       6.43213182      -0.05222767      -0.03553510       0.01261963
Se      21.38362240       9.39552951       6.41927961       0.06501267       0.00621129       0.08210353
Se       9.88116041      13.55751510       6.43969628       0.01281343       0.00253529       0.02724143
Se      21.38508889      13.56440662       6.42842110      -0.01839921      -0.00812664       0.02751134
Se       9.87255138       1.06367719      10.81094468      -0.00318015      -0.08007049      -0.03498114
Se      21.39384988       1.04453045      10.80553610      -0.09058585       0.00846198      -0.06716072
Se       9.88546338       5.21057435      10.79631969      -0.03744491       0.06224282      -0.02820506
Se      21.37208551       5.23010355      10.81774433       0.10995651      -0.04341262      -0.07344434
Se       9.87496450       9.37171157      10.80318299       0.03235593       0.09194443       0.02823636
Se      21.38126420       9.38632818      10.80335985       0.03821371       0.04383938      -0.03041400
Se       9.87670922      13.56216972      10.79059803       0.01085437       0.02089640       0.07361009
Se      21.39156346      13.56295616      10.78600171       0.01424319       0.00832875       0.02654509
Se       9.87083804       1.04817932      15.15641693       0.00952221      -0.06824844      -0.00951688
Se      21.37617001       1.05467404      15.13080985       0.11110587      -0.04491396       0.15582490
Se       9.86970002       5.21267055      15.15967975      -0.00587523       0.03079705       0.01036541
Se      21.39592171       5.23014018      15.15107391      -0.03344145      -0.10443502       0.01547733
Se       9.88002950       9.39491986      15.14108257       0.00415925      -0.01226285       0.04881709
Se      21.40931050       9.37857392      15.16239294      -0.09651119       0.07503920      -0.00072159
Se       9.87806327      13.56980718      15.15325219       0.00540460      -0.04685344       0.01415481
Se      21.39857762      13.55144714      15.15753968       0.01422564       0.04926724       0.04122596
Sn       7.11852990       1.03801041       1.78653797       0.05396949      -0.00035076      -0.01823108
Sn      18.65108485       1.04135083       1.79005731      -0.06223553      -0.01041038       0.00016934
Sn       7.12466605       5.20994521       1.77967098       0.01785537      -0.00217942      -0.00440905
Sn      18.63731520       5.21190593       1.78653533       0.05653368       0.00633395       0.01186444
Sn       7.12651510       9.37705517       1.76573524      -0.04008993       0.07584868       0.05381504
Sn      18.64455691       9.38480881       1.78527091       0.00471828       0.02424735      -0.04018653
Sn       7.13197796      13.55434128       1.76813512      -0.00200378       0.01423824       0.04391001
Sn      18.65705438      13.57056652       1.77805809      -0.10482061      -0.02117659       0.01313757
Sn       7.11482924       1.03967898       6.13144865       0.02495499       0.00403311       0.03247100
Sn      18.64914418       1.03701588       6.15428972      -0.08653191      -0.00912979      -0.00810231
Sn       7.12016235       5.20843903       6.13909136       0.04566522       0.03640230       0.04740116
Sn      18.61406839       5.21766485       6.14165318       0.14196122      -0.01060292       0.02786111
Sn       7.13241607       9.37409862       6.15497304       0.02312009       0.05848258      -0.01818247
Sn      18.64851606       9.40548211       6.14282716      -0.06593064      -0.07916609       0.04692931
Sn       7.13430761      13.55233837       6.15048485       0.00834204       0.01048143      -0.00926391
Sn      18.63259843      13.55053679       6.13211297       0.01994286       0.03339284      -0.01723287
Sn       7.12422395       1.03654040      10.50821899       0.01015137       0.00049177      -0.03319465
Sn      18.62222769       1.02351242      10.51818213       0.10258492       0.10343196      -0.06575730
Sn       7.13320664       5.20837956      10.50442826       0.00558743       0.03289797      -0.01561329
Sn      18.65050513       5.22306454      10.50594049      -0.07718469      -0.01111509      -0.02838555
Sn       7.13512018       9.38565455      10.50477004      -0.02759550       0.01146793       0.00607718
Sn      18.64013158       9.39023405      10.50056020      -0.03858721       0.00427954       0.00308323
Sn       7.12489732      13.56739489      10.49397398       0.03134663      -0.02152136       0.03636575
Sn      18.64832802      13.55728696      10.50227592      -0.03865636       0.03027461       0.01132981
Sn       7.12121584       1.04836443      14.84437110      -0.01905751      -0.08404812       0.06777459
Sn      18.64921916       1.03801349      14.87776177      -0.06934745       0.01989363      -0.03242371
Sn       7.11938699       5.21838410      14.88470000      -0.00831922       0.00019206      -0.04487071
Sn      18.63753668       5.23126103      14.86595259       0.01987171      -0.06093121       0.01294369
Sn       7.12832283       9.39366126      14.87404065      -0.02303751       0.00581200      -0.06505475
Sn      18.63345475       9.38312119      14.85917637       0.08033456       0.04551538       0.08005683
Sn       7.12516575      13.56484262      14.87266488      -0.01614952      -0.03291830      -0.01984688
Sn      18.65335738      13.55729243      14.85822265      -0.02353602       0.00448308       0.04017325
Sn       4.37654106       3.15213169       2.58228579       0.06262993      -0.06884289       0.01906074
Sn      15.91184290       3.11842588       2.57922739      -0.01674423       0.01816065       0.03873388
Sn       4.39599593       7.30338952       2.58999615       0.02874428      -0.02170159      -0.00873146
Sn      15.93016319       7.29644647       2.56901822      -0.10677958       0.04130234       0.04068871
Sn       4.38212589      11.49606823       2.58966264       0.06771791      -0.04642748      -0.00514734
Sn      15.90568960      11.48037184       2.57107365      -0.06890023      -0.01147321       0.02702577
Sn       4.39980373      15.65029636       2.57663832      -0.03386846       0.01636175       0.00561263
Sn      15.91313277      15.65221543       2.57688943      -0.02762704      -0.02935866      -0.01058277
Sn       4.39100921       3.13978152       6.95680790       0.04759048      -0.01116541      -0.03487966
Sn      15.91289974       3.13986110       6.93834443      -0.03798796      -0.02428719       0.02667321
Sn       4.38382548       7.31245696       6.94205538      -0.02727075      -0.07100143      -0.03311528
Sn      15.89281859       7.30263641       6.93951400       0.03170915       0.06008875      -0.01049913
Sn       4.38579888      11.49482360       6.94514136      -0.03191120      -0.00825524      -0.02128215
Sn      15.92077662      11.48264049       6.94115685      -0.06194245      -0.05323124      -0.01699779
Sn       4.38153748      15.65421468       6.94047351      -0.01493388      -0.00472893      -0.02967319
Sn      15.89337374      15.64870011       6.93711014       0.09214700      -0.00751121      -0.02695805
Sn       4.39503825       3.13644146      11.29563367      -0.02608470      -0.00570208       0.02874724
Sn      15.91173357       3.13000717      11.27275065      -0.04057345       0.03190048       0.11917669
Sn       4.38605643       7.31670699      11.28462879       0.00537690      -0.06463595       0.06248198
Sn      15.90817179       7.32176971      11.29384072      -0.02941990      -0.03986856       0.01394410
Sn       4.39092494      11.46696608      11.31771916      -0.02572307       0.04248031      -0.02072291
Sn      15.90621155      11.48047251      11.31498985       0.02244798       0.00711767      -0.05587276
Sn       4.39751824      15.64533909      11.29497407      -0.04451321       0.00563775       0.03393350
Sn      15.91199419      15.64785417      11.28027442      -0.04107396      -0.03598374       0.09608081
Sn       4.39037105       3.11702583      15.67871355      -0.03119118       0.02455557      -0.06858937
Sn      15.90881275       3.12277621      15.65556441      -0.04217101       0.06381540      -0.00646586
Sn       4.37200948       7.29492248      15.67271396       0.07997211       0.06529764      -0.10640198
Sn      15.92936274       7.31318107      15.66163030      -0.07150490       0.00520965       0.01986488
Sn       4.38658386      11.47044128      15.68314839       0.04860853       0.01749624      -0.06475871
Sn      15.90515739      11.50116254      15.67648593       0.09272599      -0.07146053      -0.10343680
Sn       4.37349549      15.64743586      15.65586028       0.11072696       0.03827426      -0.02431221
Sn      15.90624641      15.65349224      15.69251312       0.01383821      -0.02599785      -0.14008739
Sn      10.13820189       3.13411766       3.96896751       0.09162332       0.00009789       0.01191135
Sn      21.66509986       3.13292977       3.95235435      -0.02344801       0.02014714       0.01321451
Sn      10.15003903       7.31103109       3.96607844       0.02097637      -0.01990756      -0.00098871
Sn      21.67081759       7.32004318       3.97217210      -0.05223032      -0.03666785      -0.01921334
Sn      10.14968711      11.46828866       3.95680238       0.01076601       0.04521235       0.01818312
Sn      21.66291927      11.48252970       3.95801911       0.01998730      -0.04621579       0.03200890
Sn      10.13961683      15.64221339       3.94629066       0.04849710       0.04724296       0.03810591
Sn      21.66276608      15.63939873       3.95279718       0.07780021       0.04365624       0.09203787
Sn      10.14503515       3.11846879       8.32770384       0.04407061       0.02959853       0.00036372
Sn      21.67251781       3.12633369       8.31953604      -0.06510345       0.06082131      -0.01627963
Sn      10.15434846       7.29877715       8.31607898      -0.02270622       0.02811502       0.02586655
Sn      21.67708057       7.31475898       8.32992182      -0.02327150      -0.03063588      -0.06665250
Sn      10.15823061      11.46023345       8.33744467      -0.05188002       0.07726465      -0.01843912
Sn      21.66903621      11.49011406       8.32777793      -0.01746102      -0.03495625      -0.04644090
Sn      10.14946341      15.65134229       8.32757776       0.02097665      -0.00853475      -0.02379036
Sn      21.66199810      15.66277414       8.30804175      -0.03250816      -0.05020847       0.05399076
Sn      10.14355841       3.15227619      12.67874939       0.07575408      -0.04468120       0.07615086
Sn      21.66272875       3.12300215      12.68836865      -0.02460714       0.02440517       0.02390138
Sn      10.14161152       7.30406099      12.69349886      -0.00743338      -0.01874676      -0.00205272
Sn      21.65812795       7.31380321      12.69323249       0.15078138      -0.00762535       0.02636917
Sn      10.15952372      11.48141165      12.71742279      -0.02800986      -0.00359741      -0.12570787
Sn      21.67566092      11.48325502      12.67625095      -0.00613548      -0.00618871       0.02329051
Sn      10.14800357      15.66835865      12.70210554      -0.01124141      -0.05394222      -0.06960656
Sn      21.67989888      15.66194730      12.67245359      -0.03723485      -0.03259172       0.04155963
Sn      10.15384578       3.11941394      17.03123936      -0.02121572       0.02375153       0.05372846
Sn      21.66750717       3.13705996      17.05514785      -0.03760461      -0.00940260      -0.08058303
Sn      10.15394553       7.31123296      17.03626755      -0.01916925      -0.02964137       0.01385156
Sn      21.66406582       7.29084593      17.02608038      -0.00616686       0.04579782       0.07426722
Sn      10.15638059      11.47247500      17.05483906       0.05078407       0.01540513      -0.04106912
Sn      21.67619906      11.47381307      17.05201719      -0.14607903      -0.01434176      -0.04684490
Sn      10.14236260      15.63563659      17.04734717       0.06226972       0.07881318      -0.00369049
Sn      21.66040685      15.64969449      17.06586751       0.01907771       0.01607409      -0.13322307
Sn       1.35083936       1.04861210       0.38873908       0.04950915      -0.04058701       0.04507778
Sn      12.89132197       1.04776770       0.40248059      -0.01653747       0.01401605      -0.05086230
Sn       1.35664904       5.21121665       0.40795966       0.01083549       0.06209243      -0.04389677
Sn      12.89994733       5.22367561       0.38971294      -0.11489069      -0.01257744       0.01046026
Sn       1.36948732       9.41723639       0.39971138      -0.05142442      -0.11741862      -0.00812850
Sn      12.89685776       9.38555838       0.39826629      -0.02458230       0.03300232       0.01420414
Sn       1.37229358      13.57102409       0.39102326      -0.04050181       0.01011867       0.01550656
Sn      12.87414418      13.57693366       0.41060266      -0.03177309      -0.00134303      -0.04070372
Sn       1.38121937       1.06282270       4.76113722      -0.09404806      -0.11167459      -0.02409045
Sn      12.87912736       1.05829330       4.76692172      -0.05282993      -0.03536749      -0.03598734
Sn       1.35627338       5.20853617       4.76471033      -0.00752359       0.03506921      -0.02276439
Sn      12.88046661       5.21860823       4.77051636      -0.05001536       0.00823551      -0.09570548
Sn       1.37368830       9.40626040       4.74047567      -0.02347900      -0.06769471       0.06309248
Sn      12.88477333       9.39990856       4.74452517      -0.00529920      -0.01901495       0.03057323
Sn       1.35954898      13.55864596       4.76000801      -0.02073305       0.02273383       0.01845275
Sn      12.89851789      13.58727671       4.75164815      -0.09466246      -0.04077799       0.03015335
Sn       1.37136351       1.05037137       9.12477117      -0.05220151      -0.04843597       0.01062044
Sn      12.88622915       1.04782082       9.13777061      -0.06649744      -0.01773305      -0.04158302
Sn       1.37712260       5.20827099       9.12885212      -0.04692826       0.04815150      -0.04143079
Sn      12.89116309       5.22202220       9.13220915      -0.04584433       0.02619998      -0.08271157
Sn       1.36797867       9.39496635       9.12210732       0.03886695       0.02162148      -0.03536940
Sn      12.86205691       9.39215769       9.11421240       0.08316389       0.00680501       0.02569117
Sn       1.35423345      13.58139099       9.12593699       0.05427672      -0.01024136       0.00112332
Sn      12.88194104      13.56140278       9.12385661       0.01825717      -0.02980159      -0.01266647
Sn       1.37601229       1.03651373      13.48195051       0.02157214       0.01548975      -0.03172094
Sn      12.89092002       1.02542338      13.48142309      -0.03562066       0.08039664       0.02408074
Sn       1.36180502       5.21753423      13.47698250      -0.00946156      -0.00109868       0.00667785
Sn      12.88361560       5.23810880      13.47875957      -0.00781838      -0.06929348      -0.00409475
Sn       1.36901504       9.41290914      13.47649863      -0.00682516      -0.09165904       0.02102309
Sn      12.90038611       9.39301490      13.49981775      -0.06368990       0.01453899      -0.04211159
Sn       1.37359994      13.57012190      13.48134248      -0.00154722      -0.03738011      -0.03709330
Sn      12.87599894      13.56780873      13.49097240       0.03072229      -0.03412602      -0.02368974
256
Lattice="23.03228284 0.0 0.0 0.0 16.696356560000005 0.0 0.0 0.0 17.44441552" Properties=species:S:1:pos:R:3:forces:R:3 mlfcs_configuration_id=7 mlfcs_sampling_method=gaussian pbc="T T T"
Se       4.11583045       1.03994442       0.10315997       0.04515366       0.01855869       0.01847304
Se      15.64202775       1.05536226       0.09899629      -0.05314991      -0.09119564       0.01522975
Se       4.10927569       5.22099338       0.12094312       0.02793767      -0.00818590      -0.07668677
Se      15.64356289       5.20468126       0.10302704      -0.09668293       0.04816560       0.03298014
Se       4.10665553       9.38861380       0.12171190       0.01238447      -0.03848480      -0.08116321
Se      15.61787698       9.37510027       0.09738226       0.06740737       0.09751690       0.02624744
Se       4.11883467      13.57158561       0.11004228       0.00225365      -0.04691615       0.00034580
Se      15.64385984      13.54774721       0.11755116      -0.09015047       0.05294386      -0.03638089
Se       4.11284061       1.05042559       4.45353743       0.04047827      -0.03953540       0.08167944
Se      15.63215255       1.04547335       4.47832919      -0.08143468       0.00491703      -0.03783598
Se       4.10010902       5.21750731       4.45591933       0.15894878       0.01000278       0.04984913
Se      15.63715794       5.22497195       4.47964338      -0.09213619      -0.03195808      -0.02426331
Se       4.11061127       9.40056119       4.48038070       0.00409445      -0.02411824      -0.06539451
Se      15.61567051       9.39741238       4.47635679       0.09898296      -0.00569213      -0.04798837
Se       4.11337430      13.55327033       4.47620124       0.02523747       0.08471029      -0.02635518
Se      15.62010790      13.56359455       4.46637044       0.04058964       0.00846884      -0.01504299
Se       4.12311694       1.03684433       8.82102972      -0.00541925       0.02209800       0.03494813
Se      15.63309214       1.05317455       8.85075006      -0.00978252      -0.04758871      -0.06311084
Se       4.10088675       5.22035321       8.81701021       0.06171287      -0.01902364       0.02460768
Se      15.64229110       5.20781434       8.82112908      -0.04257441       0.05531997       0.06662746
Se       4.11006886       9.39052694       8.83110754       0.07891124       0.04152607       0.00014718
Se      15.63694000       9.39123125       8.81457665      -0.03264362       0.02727140       0.09604495
Se       4.12323943      13.56484848       8.83949291      -0.00744054       0.03650251      -0.06123836
Se      15.62502560      13.54935532       8.82753530      -0.02038169       0.08564200       0.04663613
Se       4.12892109       1.04472007      13.18698274       0.02114052      -0.01724480      -0.00894663
Se      15.62339951       1.06068831      13.17868341       0.03023453      -0.09206395       0.04930460
Se       4.10870762       5.22290013      13.17041923       0.07213839      -0.03305379       0.09183432
Se      15.64484889       5.22344172      13.19797175      -0.05689754       0.03176031      -0.03663234
Se       4.12154273       9.38967769      13.17834795      -0.00783515      -0.01075647       0.06822831
Se      15.63070223       9.38153656      13.19384099       0.01194266       0.01003532       0.00118676
Se       4.12402936      13.58014615      13.19269712      -0.02560817      -0.04759629      -0.00726187
Se      15.64134874      13.56240662      13.18419667      -0.04406694       0.01042291       0.07006838
Se       7.40358445       3.12629049       4.25774660      -0.07055456       0.00710488      -0.02080421
Se      18.90437723       3.12133894       4.26140883       0.06073580      -0.00005967      -0.01450921
Se       7.40771463       7.29438779       4.26176088      -0.08226154       0.05909258      -0.03631126
Se      18.90966179       7.30440941       4.26922418      -0.01666675      -0.02534882      -0.09156247
Se       7.40692260      11.48629222       4.27414264       0.04000072      -0.01837522      -0.07981134
Se      18.90795036      11.46847475       4.24783352       0.01817025       0.03273312      -0.00403125
Se       7.39630272      15.62887713       4.25298046       0.02770706       0.14329256       0.00895986
Se      18.90954344      15.66026023       4.25857893       0.00088320      -0.02461860       0.00998014
Se       7.39284076       3.13605482       8.62339125       0.00732767      -0.05436420      -0.01723671
Se      18.90730369       3.12522497       8.59390499      -0.00085207       0.04337479       0.11352026
Se       7.38794113       7.29681966       8.61690028       0.03710182       0.01210708      -0.01822742
Se      18.90553532       7.29910984       8.60390531       0.07351138      -0.01754993       0.04129157
Se       7.40055887      11.48259064       8.62018227      -0.00228993      -0.01163248       0.01024036
Se      18.91511276      11.46292277       8.60995908       0.01938014       0.04111981       0.02929025
Se       7.39477466      15.64838968       8.61690843       0.00457449       0.06654017      -0.01597313
Se      18.92924456      15.66054360       8.60628344      -0.01443713      -0.04879378       0.06623562
Se       7.40563176       3.13655824      12.96920182      -0.03507798      -0.05098371       0.02099601
Se      18.92347781       3.12855145      12.96316296      -0.03814714       0.00888327       0.05811663
Se       7.40339976       7.30641397      12.97498572      -0.04987579      -0.01180311       0.03162235
Se      18.91461462       7.29705350      12.98336380       0.02927929       0.03534104      -0.00083132
Se       7.39841322      11.47999798      12.98083392       0.03577243      -0.00664075       0.00603598
Se      18.90344329      11.46939067      12.95516305       0.00403701       0.04194012       0.06448472
Se       7.40449515      15.64030054      12.97858820       0.02007898       0.09158329      -0.01685255
Se      18.91869903      15.65844616      12.96522233      -0.09107485      -0.02885123       0.05341592
Se       7.39819611       3.14685802      17.35550953      -0.03020824      -0.05493422      -0.07476612
Se      18.92486238       3.13353015      17.32831532      -0.05827910      -0.00059423       0.05650734
Se       7.40603395       7.30266414      17.34397166      -0.03739757       0.06193115       0.01603218
Se      18.90866072       7.30251502      17.34000785       0.05163880       0.01354587      -0.01766171
Se       7.40131051      11.48327072      17.33257443      -0.02479894      -0.05166665       0.03050172
Se      18.90155631      11.49458135      17.36325892       0.10364105      -0.07630799      -0.12543578
Se       7.40332194      15.63918272      17.33063443      -0.05453618       0.07186617       0.02554205
Se      18.92008033      15.66583379      17.32623747      -0.02541742      -0.07254826       0.02596296
Se       1.63953369       3.13211454       2.29486552       0.01436942      -0.00052414      -0.06243472
Se      13.15348243       3.11451707       2.29243172       0.04494614       0.07410705       0.01657679
Se       1.65202498       7.30341844       2.29027214      -0.09277462       0.00359170      -0.02188796
Se      13.15217353       7.29578663       2.29648400      -0.03759289       0.03206572      -0.03092498
Se       1.64465198      11.48323718       2.30124089      -0.01409501      -0.00975992      -0.09431253
Se      13.14637002      11.47281323       2.28779907       0.11015509       0.04220962      -0.00570395
Se       1.63513389      15.66025400       2.28434575      -0.01526433      -0.03891441       0.00629573
Se      13.14699311      15.65308035       2.28792313       0.01545712      -0.05612465      -0.01369602
Se       1.65012384       3.13408663       6.65193508      -0.00425118      -0.04685395      -0.01343384
Se      13.16012136       3.12827299       6.64016143      -0.03562078       0.02163646       0.00479148
Se       1.64366540       7.30091311       6.66422185      -0.01533264      -0.00974868      -0.06142058
Se      13.17034026       7.31057275       6.65110829      -0.09719789      -0.00964136      -0.06128177
Se       1.63989743      11.46572226       6.64516190       0.05034888       0.03365838       0.02135531
Se      13.15793244      11.48062806       6.65201898      -0.02905718       0.02353038      -0.00466662
Se       1.64999032      15.64550110       6.64049286      -0.01361322       0.02508692       0.00378107
Se      13.17142701      15.66013245       6.64341591      -0.08193784       0.00175146       0.03006132
Se       1.63970491       3.12912808      11.00874324       0.06926409      -0.00968310      -0.01919157
Se      13.16164527       3.15550514      11.01032507      -0.04841843      -0.12099354       0.02604484
Se       1.64740300       7.28737959      11.00357850       0.02249973       0.09503361       0.05558878
Se      13.16920659       7.30826751      10.96453635      -0.02965295       0.01064253       0.18285906
Se       1.64751725      11.49751514      10.98846842      -0.02449377      -0.06829897       0.04707766
Se      13.17211232      11.45061394      11.01780749      -0.09530408       0.11909026      -0.04973834
Se       1.64069053      15.62892292      11.01288888       0.09481771       0.09144800      -0.01337833
Se      13.16842684      15.65606151      11.01427578      -0.10117088      -0.03667189      -0.03458099
Se       1.63666026       3.11154132      15.37645002       0.06692092       0.10238050       0.01478008
Se      13.17441598       3.14145102      15.34965262      -0.11051912      -0.04801314       0.04016218
Se       1.62562808       7.29578468      15.35360162       0.03478480       0.04138679       0.11966939
Se      13.15736034       7.30817851      15.35522885       0.02150799      -0.02952601       0.04750728
Se       1.64854830      11.48434454      15.36404979      -0.08955978      -0.05098494       0.03936459
Se      13.15519322      11.45883548      15.36620876      -0.08935500       0.07722539      -0.03737046
Se       1.64085087      15.65411011      15.37332015       0.03055019       0.01591622       0.03222773
Se      13.15936086      15.64977920      15.37239333       0.09274350       0.01507335      -0.02486636
Se       9.88405259       1.04215567       2.07767875       0.02117130       0.00376704      -0.02217177
Se      21.38831198       1.03664306       2.07973160       0.06387630       0.03856008      -0.05051760
Se       9.86848001       5.22106126       2.07478535       0.02306736      -0.00912772       0.01527725
Se      21.38713435       5.21391836       2.06942159       0.01692921       0.01827571       0.06306315
Se       9.85757426       9.39511788       2.07681827       0.06586820       0.02715203      -0.00181535
Se      21.39867040       9.38597436       2.09345664      -0.03865433       0.05624297      -0.10631690
Se       9.87023491      13.55662697       2.06456595       0.07759015       0.05104976       0.01915007
Se      21.37283447      13.58070434       2.08821347       0.02874812      -0.06053510      -0.01070859
Se       9.88003973       1.03414976       6.45371936      -0.04790457       0.00331359      -0.07307574
Se      21.38665650       1.04042039       6.44997927       0.00738492       0.04007447      -0.05625662
Se       9.88062138       5.23921082       6.43809390      -0.00375867      -0.10374508      -0.05616481
Se      21.38620339       5.21108174       6.41713672       0.06388296      -0.00781774       0.08743054
Se       9.87124632       9.40273486       6.44159502       0.07961404      -0.03860130      -0.08893175
Se      21.39037677       9.38133958       6.43787541       0.02453408       0.03251766      -0.01281822
Se       9.88416041      13.56968526       6.43727403      -0.01954327      -0.00885457      -0.03903915
Se      21.38220412      13.57404988       6.40428763       0.03259826      -0.04659286       0.09908105
Se       9.87786073       1.06881387      10.78162683      -0.02398637      -0.09983536       0.07110973
Se      21.38776000       1.04303154      10.79208473       0.02954923      -0.02226955      -0.03284823
Se       9.88439602       5.22192430      10.79823356      -0.01974554      -0.02707448      -0.01906723
Se      21.39814642       5.21736729      10.82850920      -0.05910359      -0.04398325      -0.10109557
Se       9.87554574       9.39324175      10.77960588      -0.01187891      -0.02215558       0.06960857
Se      21.38473919       9.40276270      10.78335599       0.01755801      -0.09023774       0.03470643
Se       9.85245670      13.56570122      10.81041800       0.15062537       0.01390166      -0.04703924
Se      21.39059751      13.56201682      10.77812568      -0.02924976       0.03299375       0.05100032
Se       9.87855482       1.04972340      15.13999711      -0.02377505      -0.03476782       0.09167676
Se      21.40151902       1.05076760      15.16913760      -0.11304883      -0.04703472      -0.09335754
Se       9.87986753       5.22373661      15.16302165      -0.02793538       0.00564055      -0.00231195
Se      21.39885842       5.19901221      15.14280385      -0.03975464       0.11082903       0.00384374
Se       9.86667220       9.38999072      15.16169581       0.08174038       0.01074228      -0.00652154
Se      21.39342051       9.40245998      15.16929939       0.02788469       0.00004198      -0.00570273
Se       9.86530842      13.56776383      15.14933612       0.09650961       0.00279287       0.00540412
Se      21.38829122      13.56859598      15.12372732      -0.03567963      -0.00185096       0.11658694
Sn       7.14814968       1.04877473       1.77590994      -0.08121874      -0.03875550       0.02363588
Sn      18.65945236       1.03963633       1.78319217      -0.08635256       0.02316977      -0.00937592
Sn       7.11916608       5.23371970       1.78081713      -0.01489006       0.00976198       0.01779117
Sn      18.64167350       5.22923761       1.78771837       0.00680211      -0.05144744      -0.03033449
Sn       7.12349376       9.40239284       1.80725180      -0.05331580      -0.01808874      -0.08487377
Sn      18.64335277       9.39245653       1.78357324       0.00695321      -0.02360382       0.01102783
Sn       7.13714154      13.55938609       1.77908380      -0.08703491       0.00355179       0.03284478
Sn      18.62480423      13.55353939       1.77668897       0.02572492       0.12395487       0.03684656
Sn       7.12347787       1.06080148       6.14833078       0.03280662      -0.09510488      -0.02450521
Sn      18.63105788       1.03583084       6.15671834      -0.00242634      -0.00322401      -0.01215514
Sn       7.13530334       5.21748129       6.13854559      -0.03943950      -0.00532417       0.06980837
Sn      18.65142799       5.20726651       6.14689116      -0.06272654       0.00213712       0.01845869
Sn       7.14676383       9.39334248       6.13521476      -0.13707233       0.00873084       0.06310854
Sn      18.64428235       9.38658884       6.12902969      -0.05928961       0.02119809       0.08338580
Sn       7.13104760      13.57655641       6.13986179      -0.01645286      -0.02521386       0.05301028
Sn      18.63640630      13.55576241       6.14147150      -0.01508162       0.03848730       0.00097785
Sn       7.11841356       1.03300032      10.52299642       0.06551432       0.04806174      -0.05945934
Sn      18.64484359       1.04883460      10.51290873      -0.03528433      -0.02555342      -0.05117245
Sn       7.13174760       5.21306869      10.50680026       0.00076993       0.02217309       0.00066592
Sn      18.63748836       5.22158442      10.50749164       0.03388633      -0.01834641      -0.04315351
Sn       7.12021064       9.37799594      10.50553710       0.04248317       0.06029489      -0.01269374
Sn      18.63813597       9.37238520      10.50915135       0.00978894       0.03363516      -0.04567593
Sn       7.13369066      13.59066163      10.50016276      -0.11625180      -0.12500526       0.02419162
Sn      18.63479154      13.55428386      10.50616115       0.03472295       0.02681035      -0.07944812
Sn       7.12606042       1.03499768      14.86342931       0.02237412       0.01996964      -0.01976993
Sn      18.62039200       1.05237441      14.85747182       0.10193764       0.00517454       0.00184211
Sn       7.12369068       5.20293285      14.85935508       0.03135621       0.06364998       0.01956780
Sn      18.63738275       5.21708688      14.86997594       0.02090284      -0.04207348      -0.01525864
Sn       7.13842799       9.39861604      14.87480026      -0.08118484       0.00166003      -0.01998435
Sn      18.65463970       9.39698600      14.86481154      -0.04303399      -0.01313173      -0.00343824
Sn       7.13412836      13.57610816      14.87166427      -0.09701116      -0.08627030      -0.00497223
Sn      18.62563239      13.55696346      14.86243007       0.07972711       0.00358540      -0.04929404
Sn       4.39856826       3.12994175       2.59022425      -0.03255361       0.02235292      -0.07365186
Sn      15.92006584       3.14214692       2.59091097      -0.03553062      -0.03221521       0.01056272
Sn       4.38040211       7.30907071       2.57278028       0.06477069       0.04436581       0.03067685
Sn      15.89042281       7.30136964       2.59210294       0.04880480       0.01179871      -0.01412478
Sn       4.39537947      11.49851159       2.58062787      -0.02802160      -0.07388343       0.02221143
Sn      15.93139150      11.48010871       2.57908037      -0.13308079      -0.01585557       0.03540238
Sn       4.37797815      15.66352826       2.57383432       0.04059447      -0.05555408       0.00590335
Sn      15.90044300      15.66523494       2.59043779       0.00692762      -0.00161275      -0.00139191
Sn       4.40209257       3.12653330       6.93944969      -0.03549666       0.04656045       0.01635208
Sn      15.90631493       3.13798040       6.95549509       0.01383947      -0.04978004      -0.05384344
Sn       4.39445352       7.32399327       6.94893139       0.00931426      -0.04219701      -0.03179599
Sn      15.90456548       7.31253147       6.95701885       0.06164931      -0.04397394      -0.07765298
Sn       4.41075494      11.49020241       6.94021619      -0.06743643      -0.03461992       0.00092909
Sn      15.90474654      11.48409419       6.95669919       0.05606567      -0.02614689      -0.07677091
Sn       4.39510974      15.65696795       6.94047343       0.01247474      -0.05072049      -0.00065688
Sn      15.90363456      15.65080129       6.94131371       0.05195010       0.02531635       0.03477321
Sn       4.40795305       3.12775808      11.30158945      -0.09785522       0.00329318      -0.02500049
Sn      15.89825970       3.13732153      11.31473012       0.07434947       0.02205333      -0.06201659
Sn       4.40701703       7.30627800      11.30680687      -0.03329941      -0.01263373      -0.06820839
Sn      15.90537797       7.30952454      11.30420298       0.05618499      -0.02747614      -0.00633903
Sn       4.39135470      11.47971103      11.30558255       0.00813260       0.05505624      -0.01099489
Sn      15.90397195      11.47590853      11.31813695       0.07073665      -0.04086652      -0.06573179
Sn       4.41787752      15.64037897      11.28846861      -0.13503707       0.01304789       0.05648980
Sn      15.89734194      15.65138975      11.31002113       0.10262319       0.04365711      -0.06416060
Sn       4.39668458       3.13187553      15.66745656      -0.03321419      -0.00254736       0.01720285
Sn      15.89999261       3.12771399      15.66196626       0.07305253       0.01277238      -0.01401230
Sn       4.37492989       7.29263125      15.65095155       0.05390874       0.03800583       0.06671386
Sn      15.91455456       7.30669791      15.66827782      -0.03967939      -0.03817755      -0.01519037
Sn       4.37237550      11.46349783      15.66879936       0.11056751       0.03175768      -0.00459135
Sn      15.87912678      11.49057979      15.64393404       0.09483181      -0.08347548       0.05361429
Sn       4.39920550      15.64353679      15.67265624      -0.01650417       0.01815120      -0.05016307
Sn      15.93899508      15.62969086      15.66912098      -0.13264070       0.07536732       0.06353411
Sn      10.13076114       3.13442291       3.96035119       0.08784299       0.01100815       0.00529674
Sn      21.66628201       3.12103835       3.97022432      -0.04388276       0.04790486      -0.02848311
Sn      10.13435918       7.31666073       3.95832641       0.10414252      -0.02870607       0.00419781
Sn      21.65095728       7.32019372       3.96174549       0.05960255      -0.11000059       0.02999257
Sn      10.16791912      11.49054706       3.95443746      -0.04078266      -0.02273811       0.00436743
Sn      21.66413428      11.47954388       3.97768194      -0.00801874       0.03815051      -0.04193760
Sn      10.15321794      15.65418556       3.96042012      -0.04006177      -0.03456253       0.00432044
Sn      21.66447861      15.66546856       3.96245597      -0.01777675      -0.03982502       0.03564385
Sn      10.14489279       3.12451014       8.31798514       0.01512168       0.04152764       0.03781430
Sn      21.65096322       3.12265146       8.33850700       0.03740129       0.04606429      -0.03836209
Sn      10.14677677       7.31128847       8.29873523       0.00954771       0.00207538       0.12311193
Sn      21.67066730       7.30263083       8.31870839      -0.05862271      -0.03646409       0.00081293
Sn      10.15065236      11.47337524       8.30228404      -0.01461363       0.02805377       0.10779748
Sn      21.67420666      11.48076367       8.32038337      -0.04509294       0.01919296      -0.01686643
Sn      10.13918091      15.63772406       8.32576172       0.04216780       0.03592379       0.04245775
Sn      21.68111859      15.65445430       8.30969518      -0.03768722      -0.03947345       0.01578631
Sn      10.15109393       3.12962179      12.69326711       0.02312380       0.01601311      -0.02231181
Sn      21.67105151       3.10029699      12.69007909       0.03522640       0.05522753       0.00766155
Sn      10.13880797       7.29002707      12.68274194       0.05308171       0.06724907      -0.01908264
Sn      21.66909389       7.28783701      12.69167244      -0.01557344       0.09582567      -0.02609340
Sn      10.15647615      11.47880326      12.67595044      -0.05794686      -0.04738045       0.00700482
Sn      21.65519040      11.48859282      12.66951445       0.04308694      -0.02335260       0.00052666
Sn      10.15948747      15.65077064      12.68366833      -0.02936701       0.06366323      -0.02753365
Sn      21.64790331      15.65095547      12.69076253       0.09088809      -0.01353267      -0.03430131
Sn      10.13547866       3.13514157      17.04662067       0.06870888      -0.01088747      -0.03181657
Sn      21.65854663       3.13870195      17.02370798       0.06739467      -0.01150036       0.10288630
Sn      10.15230957       7.32043871      17.06012998       0.00401021      -0.03605132      -0.02632465
Sn      21.66888225       7.30122755      17.03937253      -0.05253334      -0.01801236       0.00572217
Sn      10.14581351      11.48377157      17.03765811       0.00599296      -0.02254736       0.00442346
Sn      21.67255842      11.49966510      17.04511172      -0.06984017       0.01125129      -0.00727744
Sn      10.13539881      15.63897519      17.05349621       0.07302260       0.06107298      -0.06796667
Sn      21.66438672      15.66119094      17.04039421       0.00757541      -0.05159371      -0.00318453
Sn       1.37427277       1.04152765       0.39097859      -0.04306155       0.04583228       0.02666171
Sn      12.87809797       1.03114010       0.41819722       0.04599160       0.02012564      -0.08385981
Sn       1.36500271       5.22364493       0.39293494      -0.01682576      -0.05837033       0.06316645
Sn      12.87158867       5.21486098       0.40931555       0.08086069      -0.01554016      -0.02534133
Sn       1.36075921       9.38258361       0.39985827       0.00944614       0.06282245       0.06712895
Sn      12.88709818       9.40771741       0.40184113      -0.04457833      -0.06495179      -0.01853332
Sn       1.37240646      13.57257082       0.38677347      -0.01788078      -0.02500905       0.07110731
Sn      12.87247463      13.55453910       0.38498217       0.07593556       0.02723760       0.03777792
Sn       1.37392113       1.04601115       4.76020247      -0.05165992       0.01536451       0.00581177
Sn      12.85618079       1.06366541       4.75046479       0.11942881      -0.03078903       0.02828823
Sn       1.38648466       5.20270737       4.75128349      -0.14159247       0.03347903       0.03202231
Sn      12.86007946       5.22082104       4.74839494       0.11473203       0.01632079       0.06932280
Sn       1.35523653       9.37756378       4.76718106       0.04201391       0.01666597      -0.00269955
Sn      12.88922259       9.40940926       4.75255044      -0.05916991      -0.06673872       0.03316583
Sn       1.36815473      13.55248471       4.75605712      -0.01642111      -0.01106598      -0.00074711
Sn      12.87691950      13.57002257       4.76957772       0.00323234       0.00159137      -0.01225002
Sn       1.37587720       1.03468252       9.13049607      -0.01503326       0.00991548       0.01850548
Sn      12.88166710       1.03986468       9.11342627       0.02859883       0.03459574       0.01920647
Sn       1.36036717       5.23462292       9.12358549      -0.02153524      -0.09800407      -0.02235097
Sn      12.88385407       5.21457732       9.14497117      -0.01747963      -0.00081643      -0.16770474
Sn       1.37901664       9.38407830       9.11777524      -0.06808069       0.03157314       0.02065972
Sn      12.87996551       9.39274765       9.11349913       0.00508090       0.01438493      -0.06173911
Sn       1.37035470      13.57989895       9.10737511      -0.00046390      -0.03930639       0.00414051
Sn      12.87082648      13.56054648       9.11614343       0.03766689      -0.02414190       0.04870301
Sn       1.38595119       1.05312774      13.49105849      -0.04139504      -0.04377732      -0.07678671
Sn      12.87946429       1.04024751      13.46709821       0.00085408       0.01237235       0.06414211
Sn       1.37378393       5.22211033      13.49447524      -0.07597411      -0.10086402      -0.09632669
Sn      12.87999965       5.21578199      13.48331572       0.03986274       0.02777933      -0.00241453
Sn       1.37488551       9.37658677      13.48897583      -0.05061968       0.08384989      -0.09578600
Sn      12.88190300       9.38070255      13.46076921      -0.01780273      -0.00860579       0.02470795
Sn       1.36460179      13.57985520      13.49836211       0.02572339      -0.01985192      -0.09707142
Sn      12.88566171      13.58499812      13.48118586       0.00231872      -0.05767628       0.02885233
256
Lattice="23.03228284 0.0 0.0 0.0 16.696356560000005 0.0 0.0 0.0 17.44441552" Properties=species:S:1:pos:R:3:forces:R:3 mlfcs_configuration_id=8 mlfcs_sampling_method=gaussian pbc="T T T"
Se       4.12601827       1.03875617       0.10068391      -0.05776360      -0.00679291       0.01572435
Se      15.62585156       1.02266319       0.11870082       0.02650427       0.04170222      -0.06746729
Se       4.11006891       5.20934323       0.09403018       0.10760746       0.04238170       0.02177453
Se      15.63058306       5.23499254       0.12676768       0.05973246      -0.08708363      -0.08215759
Se       4.09987656       9.38790228       0.09548632       0.05996808       0.04515517       0.02949525
Se      15.64251003       9.39431269       0.09946420      -0.03718357       0.00278501       0.02616774
Se       4.11721096      13.56076171       0.12197236       0.02194411       0.02565262      -0.01961963
Se      15.63809625      13.57223413       0.07916072      -0.05344661      -0.03776431       0.11771741
Se       4.11581734       1.06410059       4.48019506       0.07216889      -0.10894956      -0.03811383
Se      15.61415576       1.04013422       4.45491858       0.09888014       0.00241284       0.02524745
Se       4.13359625       5.21980040       4.45925582      -0.08775151      -0.00385696       0.01240710
Se      15.63296823       5.19128396       4.45608416       0.02769863       0.10331229       0.04702537
Se       4.11684967       9.39990351       4.44752063       0.00239153      -0.05424082       0.08851181
Se      15.62881510       9.40154361       4.45241924       0.02184777      -0.02185047       0.06063648
Se       4.11877706      13.56619564       4.48407758       0.06185705      -0.00738635      -0.04157521
Se      15.63032529      13.56381989       4.47548337      -0.03164244       0.00338864      -0.01924889
Se       4.10322174       1.04105964       8.82348040       0.04073522      -0.00442333       0.05288693
Se      15.63123753       1.05175254       8.83357927       0.00455108      -0.03588681      -0.00802122
Se       4.10899841       5.21872461       8.84294207       0.03889133       0.00663187      -0.07887230
Se      15.62431299       5.21880928       8.82610605       0.04101852       0.00436525      -0.04530122
Se       4.11585518       9.37514018       8.84214528      -0.01554587       0.11289404      -0.10484617
Se      15.62488313       9.40170748       8.82182389       0.04207444      -0.07267525       0.00864371
Se       4.11023018      13.57766713       8.83797650       0.07979102      -0.04833290      -0.08169004
Se      15.63471331      13.57314740       8.82515213      -0.00869888      -0.02459970      -0.00154858
Se       4.11640155       1.03665223      13.19818218      -0.02315678      -0.01916975       0.01056815
Se      15.62569252       1.05812004      13.18598319       0.02253400      -0.06902802      -0.01223267
Se       4.11669032       5.22494490      13.18938018      -0.01401644      -0.02904467       0.02568082
Se      15.62964757       5.21705738      13.19807972      -0.03309354      -0.01546767      -0.03210106
Se       4.10985671       9.39018439      13.18924440      -0.01375521       0.00130193       0.05405897
Se      15.64127250       9.39044830      13.20722453      -0.03114568      -0.00315152      -0.07336476
Se       4.11491985      13.56315906      13.18743121      -0.01977289       0.00726669      -0.02590869
Se      15.61946024      13.55516863      13.18383487       0.13641566       0.09268542       0.05111497
Se       7.41072970       3.12998179       4.25037039      -0.00835299       0.00184802       0.01930317
Se      18.92777816       3.14582482       4.26777066      -0.10643195      -0.05714445      -0.07273175
Se       7.39084050       7.29944970       4.27335419       0.08282480       0.06866731      -0.03859926
Se      18.91792421       7.30172592       4.26240031      -0.08170881       0.01242548      -0.05338254
Se       7.40944439      11.47277683       4.25741123      -0.07241190       0.03022242       0.03182545
Se      18.92477842      11.46688846       4.25534029      -0.03941457       0.04990066      -0.01302954
Se       7.38822750      15.64274466       4.24958583       0.03660928       0.03735413       0.02640285
Se      18.92028401      15.64936024       4.24873265       0.02450779       0.02207900       0.04329098
Se       7.39988694       3.11884342       8.62060875       0.01977634       0.01622844      -0.02258631
Se      18.92682669       3.12952101       8.61429422      -0.03854814      -0.00538546       0.03898819
Se       7.40310580       7.28411749       8.62168889       0.01561447       0.11811874      -0.03652017
Se      18.94653168       7.30317542       8.61512946      -0.12901315       0.04140904       0.03384308
Se       7.40680747      11.49494465       8.62607039      -0.05321573      -0.08923432      -0.01937308
Se      18.89395675      11.48412532       8.64204002       0.16006791      -0.00044694      -0.08782853
Se       7.40559581      15.64103445       8.61913901      -0.04172159       0.01067787      -0.05566727
Se      18.90270594      15.66490850       8.60676189       0.04335937      -0.08030733       0.02412213
Se       7.40011383       3.12173525      12.97196011       0.04943018       0.01578392       0.03420362
Se      18.93037432       3.13134762      12.97183257      -0.00338784      -0.02226634      -0.04186362
Se       7.38791912       7.28568517      12.96491179       0.01503252       0.09113929       0.07753662
Se      18.91663241       7.31420452      12.97182108      -0.00727704      -0.06360849       0.04735334
Se       7.41507683      11.47131632      12.97504448      -0.03222986       0.00516501       0.02029023
Se      18.90471705      11.48839894      12.99839970       0.11172016      -0.00186938      -0.09232693
Se       7.38175323      15.64911885      12.99007239       0.03741394       0.02079093      -0.03571502
Se      18.90104336      15.65824731      12.98963932       0.04632401      -0.00157745      -0.06928381
Se       7.40015369       3.13581568      17.35613750       0.01007528      -0.02666415      -0.04270108
Se      18.93499708       3.12969337      17.33320470      -0.04817116       0.00077920       0.04656461
Se       7.39017160       7.31417183      17.32481072      -0.02267131       0.01376173       0.04127526
Se      18.91298708       7.30542908      17.33349845       0.05120881      -0.02188565       0.01698050
Se       7.40216960      11.50413646      17.33731249      -0.00243632      -0.13430680      -0.00893999
Se      18.91115876      11.48864465      17.34092431       0.00596927      -0.05177042      -0.01824618
Se       7.41376476      15.65422734      17.33604424      -0.04236364       0.00837411      -0.06751288
Se      18.89767557      15.63638312      17.32017149       0.03666722       0.11203885       0.10168601
Se       1.64509408       3.11669055       2.29893761      -0.04254959       0.05206294      -0.04866644
Se      13.15774457       3.12787118       2.27794328      -0.00735620       0.01132768      -0.00891426
Se       1.64752327       7.29635721       2.27652805      -0.00407094       0.04192808       0.05322608
Se      13.16932561       7.30794840       2.28403254      -0.09625780      -0.03325753      -0.04535467
Se       1.64771502      11.47858065       2.29021197      -0.03798140      -0.01510382      -0.02192859
Se      13.14927363      11.49919531       2.28058563       0.07825623      -0.05053451       0.00013373
Se       1.65686085      15.65069178       2.29445281      -0.08862019       0.00617267      -0.01776678
Se      13.16478434      15.66404898       2.27797560      -0.03803261      -0.05111440       0.03849843
Se       1.65205704       3.14877745       6.64489878      -0.08011850      -0.07548559       0.00168297
Se      13.15778917       3.12507858       6.64402135      -0.01449160       0.02929499       0.03328169
Se       1.65841492       7.29435984       6.63806453      -0.04914115      -0.00529500      -0.03269836
Se      13.17355112       7.31064767       6.66868942      -0.06836340      -0.02649923      -0.04540766
Se       1.63679630      11.47975414       6.64087894       0.08721478      -0.02728755       0.01734426
Se      13.15887512      11.46075036       6.65433526      -0.01733952       0.10460148      -0.04295976
Se       1.64453543      15.65200492       6.64358207      -0.01935575      -0.00122852       0.05986663
Se      13.14849457      15.65985760       6.63577481       0.01651910      -0.02382905       0.07654068
Se       1.64641965       3.15105756      11.02344481      -0.07483965      -0.10516627      -0.05855928
Se      13.14239083       3.12494567      11.01280410       0.04228847       0.01242007       0.01014655
Se       1.64059787       7.29040813      11.01244275      -0.00786439       0.07757715       0.00817716
Se      13.15734194       7.32354544      11.00605731      -0.04644409      -0.11183815       0.04803871
Se       1.65298072      11.46582044      10.99830950      -0.07151281       0.02369822       0.03475058
Se      13.16465873      11.48932863      10.99901567      -0.06807415      -0.04334674       0.00477006
Se       1.64154146      15.63876468      11.00677740      -0.01148405       0.09064109      -0.01661161
Se      13.16581134      15.64823088      11.00609925      -0.01813628      -0.01343104       0.02266154
Se       1.63000273       3.12382946      15.38727458       0.03758975      -0.00801915      -0.07588808
Se      13.15817136       3.12028997      15.36654575       0.03060649       0.04941954       0.01099592
Se       1.62532641       7.29426059      15.38329687       0.01681682       0.05955981      -0.06803161
Se      13.15601728       7.32330949      15.36874000      -0.01582059      -0.12103720      -0.00000749
Se       1.64094090      11.48490027      15.34296760       0.03588486      -0.02398088       0.11326831
Se      13.15949150      11.47800146      15.38455386      -0.03293143       0.01440938      -0.06078638
Se       1.65094748      15.64124355      15.38211486      -0.08337452       0.05408339      -0.06418615
Se      13.15481896      15.64353593      15.37166451       0.02564522       0.02372076      -0.00502540
Se       9.87252825       1.05865313       2.07807111       0.05382468      -0.06870775      -0.01273239
Se      21.39275395       1.05227495       2.08559361      -0.02970505      -0.07970867      -0.03896662
Se       9.88239199       5.23155225       2.08075172      -0.07531389       0.00503248      -0.01643587
Se      21.39237388       5.22974934       2.07375593      -0.05597588      -0.01810635      -0.03983249
Se       9.87488841       9.40866253       2.09088414      -0.06857968      -0.10675344      -0.05927113
Se      21.39061560       9.38691124       2.08929663       0.02793078       0.04903877      -0.05757067
Se       9.88256012      13.56869171       2.07144617      -0.04187009      -0.03008201      -0.01935121
Se      21.39401433      13.56531881       2.06802151      -0.03235833       0.03007485       0.04034109
Se       9.87584636       1.04592272       6.43201482      -0.02373080      -0.00372855       0.00313253
Se      21.39973562       1.05615680       6.44546775      -0.03891114      -0.03831576      -0.07618918
Se       9.87179346       5.22491583       6.43654839       0.02133671      -0.02696278      -0.01112268
Se      21.37833990       5.22408491       6.43723009       0.02064576      -0.00612688       0.01094809
Se       9.90049142       9.40601947       6.44288028      -0.08762908      -0.05457965      -0.01004727
Se      21.39318907       9.39308398       6.42573188      -0.03694926       0.02132098       0.06685785
Se       9.85716607      13.55681031       6.43529160       0.05880889       0.03672440       0.05040033
Se      21.36964197      13.56009268       6.43329264       0.05717829       0.04088246       0.03029792
Se       9.87240168       1.03665124      10.79345752       0.02513324       0.01761493      -0.00926911
Se      21.40793630       1.04988993      10.79126965      -0.06085775      -0.02759149      -0.00144935
Se       9.87387246       5.21707448      10.78919310       0.02877224      -0.01797640       0.04743816
Se      21.38300606       5.22746286      10.79267481       0.03573288      -0.03665466       0.04855648
Se       9.86360898       9.39101535      10.79805275       0.02309506       0.00910174      -0.03928869
Se      21.37097032       9.39103929      10.80555245       0.16814643       0.00112935      -0.00152746
Se       9.87906824      13.58783385      10.80938375      -0.03658395      -0.10952221      -0.07760871
Se      21.40518670      13.59353676      10.80445422      -0.08071719      -0.10871969      -0.03887392
Se       9.87618664       1.05300588      15.15238417       0.01960692      -0.04201315       0.03807991
Se      21.39177422       1.03679120      15.16195638       0.00440686       0.04108768      -0.01465988
Se       9.86803685       5.21048833      15.16211127       0.03184434       0.03300482       0.00035679
Se      21.38932025       5.19808241      15.14342096      -0.00653627       0.07870015       0.07511704
Se       9.86308328       9.38261704      15.16212077       0.03752799       0.06962627      -0.03502558
Se      21.39288675       9.40209955      15.16550455       0.00688864      -0.04318861      -0.02794656
Se       9.88527497      13.57161986      15.16007333      -0.01075623      -0.03900691       0.00930372
Se      21.40169088      13.57473002      15.16173749      -0.07798290      -0.02000351      -0.03077955
Sn       7.13727163       1.01981059       1.77912444      -0.07389234       0.10137248       0.05324118
Sn      18.63764442       1.05479531       1.79774302       0.03278804      -0.05465493      -0.08453351
Sn       7.11005911       5.23146929       1.77031462       0.09121056      -0.02992113       0.05305335
Sn      18.62929018       5.21501476       1.77884700       0.05564710       0.01698670      -0.03675408
Sn       7.10897674       9.39794554       1.78882309       0.07693637       0.02595450      -0.00951397
Sn      18.65124274       9.38711220       1.78163324      -0.04488322       0.00402410      -0.01599155
Sn       7.12425664      13.58241585       1.75368662       0.01451066      -0.04192961       0.12498413
Sn      18.63113289      13.56559131       1.77117336       0.03921254       0.02096156       0.02532338
Sn       7.12197770       1.04200772       6.13655609       0.02681870       0.02942375      -0.02644335
Sn      18.64134702       1.04954997       6.14077028       0.02324278      -0.03109101       0.01856409
Sn       7.12002896       5.21569997       6.14305858      -0.02470051      -0.04197369       0.00485761
Sn      18.62329913       5.22197316       6.13862293       0.04802956       0.00713076       0.08933174
Sn       7.13717626       9.39735729       6.15483361       0.02388534      -0.01075408      -0.03601970
Sn      18.63059229       9.38773289       6.13070836       0.06070406       0.01144149       0.05485588
Sn       7.11750900      13.57805695       6.15800785       0.03282301      -0.04135382      -0.06619273
Sn      18.62922100      13.56095312       6.14237099      -0.02015047       0.00188909      -0.02302217
Sn       7.13041696       1.02567037      10.48820683      -0.04355954       0.06648938       0.07376211
Sn      18.64559859       1.02377809      10.49976885       0.02472776       0.08795501      -0.01578515
Sn       7.12618183       5.22151428      10.50281965      -0.02405169      -0.07499521       0.04389290
Sn      18.63704476       5.22580333      10.50708889       0.00028355      -0.02414368      -0.03874418
Sn       7.11809074       9.39182399      10.50806852      -0.01706182      -0.01643702      -0.01846397
Sn      18.65788470       9.39930999      10.51638240      -0.16741955      -0.04188233      -0.00270089
Sn       7.11845483      13.56029407      10.50188303       0.01385921       0.01865617       0.07461468
Sn      18.63926660      13.55545565      10.51689616       0.05221943       0.04706677      -0.02817533
Sn       7.13339442       1.04021170      14.87175781      -0.03695796       0.04356068      -0.02676934
Sn      18.64293132       1.05046676      14.85189764      -0.01855626       0.00645743       0.06285611
Sn       7.12310430       5.21677723      14.87157713      -0.00913852      -0.05621909      -0.04774194
Sn      18.63441795       5.19235831      14.85452371       0.03053809       0.08170164       0.01519967
Sn       7.12395043       9.39208560      14.88217819      -0.01963088      -0.01821534      -0.08696109
Sn      18.64652979       9.39226206      14.86501679      -0.02296089      -0.00991539       0.02307164
Sn       7.13560274      13.55963479      14.86393787      -0.00618912      -0.01465769      -0.01209881
Sn      18.62980975      13.57972496      14.86926570       0.08302230      -0.03110885       0.04359917
Sn       4.38422049       3.12916850       2.58411417       0.07842298       0.00441938      -0.03363224
Sn      15.90492995       3.12496834       2.57247492      -0.01455566      -0.03721053      -0.03355032
Sn       4.39468534       7.30082164       2.57448008       0.02468392      -0.00052623      -0.00022079
Sn      15.89407652       7.30517859       2.57720543       0.05989832       0.00018202      -0.02796015
Sn       4.38807924      11.48047903       2.58649768       0.03688969       0.02108153      -0.04537337
Sn      15.91445279      11.48401861       2.57661096      -0.07184976       0.01777008      -0.01359235
Sn       4.38562574      15.64214131       2.57308610       0.07063101       0.07614035       0.04076987
Sn      15.90763364      15.64471761       2.57997823       0.01996546       0.00205572       0.00089475
Sn       4.38164115       3.11370313       6.94831560       0.08101280       0.11544657      -0.00360626
Sn      15.90269299       3.12194271       6.92918307       0.01936444       0.03107317       0.03794343
Sn       4.39552608       7.31815126       6.93609080       0.01123255      -0.07109295       0.06279858
Sn      15.90528151       7.31511851       6.92201708       0.07295395      -0.01028192       0.08790237
Sn       4.41096441      11.50293233       6.91305817      -0.13141139      -0.08074592       0.14351370
Sn      15.90646211      11.47130186       6.93747382       0.00202989       0.02908592       0.01228171
Sn       4.38711187      15.66069806       6.93899584       0.02683515      -0.02632896       0.00464959
Sn      15.89832807      15.65085862       6.94526938       0.02809900       0.02234528      -0.01660464
Sn       4.37945851       3.11385071      11.32115285       0.10386443       0.07831229      -0.04475094
Sn      15.90101287       3.12893952      11.29724747      -0.00314378       0.01837912       0.00331449
Sn       4.39677660       7.32213009      11.30702476      -0.02068932      -0.07145452      -0.05468591
Sn      15.89225349       7.29056095      11.29723577       0.07620256       0.05442182       0.02353432
Sn       4.38861339      11.46127181      11.30941883       0.05379677       0.06149700      -0.02475406
Sn      15.89657393      11.49342434      11.31943175       0.06984221      -0.12324223      -0.06973704
Sn       4.38881318      15.65697019      11.28890595       0.00432875      -0.04816426       0.04833961
Sn      15.91367390      15.64759854      11.29035307      -0.00702425       0.05921667       0.03405284
Sn       4.38840237       3.12565557      15.65907771      -0.00516010      -0.01554059      -0.00410855
Sn      15.91693394       3.12245997      15.67967953      -0.03547450      -0.00627330       0.01905714
Sn       4.37804512       7.32055649      15.65216420      -0.01552265      -0.06092192      -0.00834613
Sn      15.90742701       7.29950023      15.65889201       0.00654964       0.03899885      -0.00324844
Sn       4.39930929      11.49348959      15.67423455      -0.03471143      -0.02324667      -0.03863283
Sn      15.90338858      11.48033388      15.65450852       0.03129120      -0.05005743      -0.00415557
Sn       4.38138022      15.64111746      15.65795357       0.05862736       0.01539083      -0.00266285
Sn      15.90993320      15.63346232      15.66186576       0.00419482       0.10523020      -0.02225592
Sn      10.16452668       3.14153216       3.95672917      -0.02533707       0.01386198       0.01070097
Sn      21.65153912       3.13491135       3.93940672       0.12291298       0.03111324       0.09309099
Sn      10.16046797       7.30226631       3.98089401      -0.07426002       0.00647516      -0.05959435
Sn      21.64823820       7.31358365       3.96157592       0.10124691      -0.03516813       0.06595153
Sn      10.14605592      11.46479289       3.96853849       0.04314106       0.08026203       0.01928045
Sn      21.67226922      11.49634260       3.97266151       0.01245746      -0.03061101      -0.01500502
Sn      10.14342748      15.64254184       3.94889609      -0.00848691       0.03351178       0.04350668
Sn      21.68024009      15.64479872       3.97738331      -0.05179604       0.00389469      -0.04342086
Sn      10.15461715       3.13361208       8.32061620      -0.03077175      -0.00763081       0.00737146
Sn      21.67211458       3.13015834       8.31999275      -0.00877001       0.06831127       0.01366373
Sn      10.15632648       7.30296247       8.31570154      -0.01835334      -0.01015990       0.04710955
Sn      21.67150612       7.30376233       8.32857399       0.05581904      -0.00466463      -0.05496013
Sn      10.14482783      11.46640011       8.34103563       0.06179953       0.08387732      -0.02533463
Sn      21.68097396      11.48732918       8.31980678      -0.13226487      -0.03281136      -0.02190643
Sn      10.14636325      15.66640374       8.32014659       0.04546693      -0.05669342      -0.03373526
Sn      21.65918229      15.67130281       8.32320811      -0.02629650      -0.05442887      -0.00021881
Sn      10.16705068       3.11632913      12.68997062      -0.11312473       0.04715501      -0.03616222
Sn      21.68621868       3.13061055      12.68214872      -0.04148083       0.03249479      -0.01230298
Sn      10.13768891       7.31522562      12.67708749      -0.00535381      -0.06808615       0.02009422
Sn      21.66455976       7.29205716      12.70035771      -0.01063868       0.01598168      -0.01645770
Sn      10.16091528      11.47817548      12.67324728       0.02350311       0.03092283       0.03938524
Sn      21.68086692      11.47483201      12.67373672      -0.10335481       0.05543242       0.02495875
Sn      10.13174525      15.64612082      12.67024239       0.03025318       0.03911646       0.10350734
Sn      21.65927964      15.66002455      12.68103477       0.00909773       0.01867289       0.04755706
Sn      10.15292336       3.12307970      17.04654434      -0.03063285       0.04114952       0.01657408
Sn      21.68471686       3.12682819      17.04973694      -0.00874521       0.01693623      -0.02014604
Sn      10.13371116       7.31960325      17.04112058       0.06102362      -0.08059156       0.04064881
Sn      21.67601319       7.30317038      17.05200844      -0.07517999      -0.03257102      -0.05249078
Sn      10.15607655      11.47396692      17.05681171      -0.01378925       0.02922842      -0.03423198
Sn      21.65791800      11.48627067      17.04199059       0.03240924       0.01766140       0.02815275
Sn      10.15286201      15.64796054      17.04639241       0.05446891       0.01771517      -0.02340989
Sn      21.65476091      15.65505604      17.04633453      -0.01350613      -0.01854647       0.01549573
Sn       1.36108866       1.04271820       0.39980577       0.07129867      -0.02088474      -0.00451990
Sn      12.87646805       1.04198089       0.38841020       0.00917451       0.02314359       0.02022556
Sn       1.38994753       5.22794880       0.40119666      -0.10508684      -0.07926154      -0.03255878
Sn      12.89435275       5.19756509       0.37288892      -0.06804397       0.07046154       0.08521417
Sn       1.36249729       9.37766112       0.39609967      -0.03689961       0.06631039       0.00125478
Sn      12.88468818       9.40065090       0.38708308       0.04580485      -0.00674069       0.05516365
Sn       1.37048651      13.56567979       0.40194081      -0.04135306      -0.01222118       0.00621616
Sn      12.87743390      13.57936725       0.39743063       0.02709152      -0.02917561       0.00470953
Sn       1.38423202       1.03536459       4.76699787      -0.08863113       0.06225792      -0.02609417
Sn      12.88203493       1.03999105       4.76589275      -0.08172577       0.03752889      -0.06776532
Sn       1.36349846       5.19073796       4.72894092       0.05691004       0.08338887       0.05890614
Sn      12.89535584       5.22966020       4.77844301      -0.04841979      -0.04227831      -0.05821961
Sn       1.36631492       9.37852041       4.75537376      -0.01025242       0.01981067       0.02585873
Sn      12.88274586       9.38137637       4.77605535      -0.01919948       0.04031255      -0.06590242
Sn       1.38888523      13.57031870       4.75946096      -0.10431815      -0.03867415      -0.02041420
Sn      12.86968195      13.58100024       4.76033267       0.03192773      -0.09671041      -0.00190665
Sn       1.36359855       1.04808022       9.11481637      -0.03249966       0.00071057       0.06905232
Sn      12.88410037       1.02884381       9.13154435      -0.01530469       0.03601910      -0.02540314
Sn       1.36544609       5.22894563       9.11866212       0.01263336      -0.01248871      -0.01676859
Sn      12.88126962       5.20523444       9.12827105      -0.01586050       0.02425615      -0.00020223
Sn       1.35773180       9.38658253       9.12068395       0.05696694      -0.04962963      -0.02301842
Sn      12.88384386       9.37438579       9.11836542      -0.00962615       0.10817138      -0.02219697
Sn       1.37444250      13.56175252       9.11842616      -0.04909495      -0.00274642      -0.01228886
Sn      12.88425568      13.56427629       9.11036833      -0.00731670      -0.00940692       0.00642681
Sn       1.36612674       1.05320921      13.47126560       0.01034340      -0.05347252       0.06902491
Sn      12.87888680       1.02945216      13.49119118       0.00280288      -0.00228206      -0.03132342
Sn       1.36556662       5.20885562      13.48270002       0.02676581       0.01751680       0.02786045
Sn      12.87059562       5.20702266      13.46717603       0.04589453       0.04404832       0.06649197
Sn       1.35582241       9.40502013      13.47444618       0.00971628      -0.07778079       0.03188502
Sn      12.88729387       9.38308374      13.48937270       0.01717539       0.06484604      -0.02045687
Sn       1.35622938      13.56592818      13.48230587       0.03900097       0.03951781      -0.01875581
Sn      12.90590967      13.57184015      13.47584832      -0.18377857      -0.04671694       0.01294069
256
Lattice="23.03228284 0.0 0.0 0.0 16.696356560000005 0.0 0.0 0.0 17.44441552" Properties=species:S:1:pos:R:3:forces:R:3 mlfcs_configuration_id=9 mlfcs_sampling_method=gaussian pbc="T T T"
Se       4.12259114       1.06545202       0.09035067       0.01199307      -0.12457015       0.03402943
Se      15.62345725       1.04170130       0.10247615       0.01358727       0.01952166       0.03267860
Se       4.11241309       5.20511709       0.12068659      -0.00795414       0.07301225      -0.04593012
Se      15.61765599       5.21615729       0.11710534       0.07604212       0.00886172      -0.04984034
Se       4.11543880       9.38245461       0.09316027       0.00813032       0.06526706       0.01384222
Se      15.62958208       9.38467826       0.10869934       0.03400726       0.08225379      -0.00010414
Se       4.10172614      13.57446805       0.10780252       0.08908949      -0.07731138      -0.01339456
Se      15.63378044      13.58074846       0.10226907       0.01880977      -0.08068187       0.01456996
Se       4.10848249       1.03859264       4.46582564       0.10186074       0.00811769      -0.02571886
Se      15.63097242       1.03576330       4.44752006      -0.02210975       0.00733189       0.05816771
Se       4.11013136       5.22175767       4.46911349      -0.02829339      -0.00847163      -0.01111600
Se      15.64387762       5.23771428       4.47534425      -0.03270308      -0.05998437       0.01417378
Se       4.12956586       9.39991630       4.48484990      -0.01177770      -0.00651242      -0.07970806
Se      15.65039061       9.40176021       4.47481471      -0.06117519      -0.09443217      -0.02906293
Se       4.11368833      13.56592432       4.46437254       0.04553251      -0.02380707      -0.02125587
Se      15.63809459      13.55913421       4.46583985      -0.03415443       0.00463086      -0.01042045
Se       4.09218895       1.06130117       8.82665004       0.10220603      -0.09031464       0.00963359
Se      15.63643788       1.05864814       8.83185772      -0.02370458      -0.05013979       0.00248931
Se       4.13018409       5.20574204       8.85282856      -0.07570495       0.04384538      -0.12405803
Se      15.64275317       5.22025144       8.84310558      -0.04143389      -0.01188183      -0.08294249
Se       4.10405430       9.38936241       8.84329729       0.07271166       0.04329067      -0.08053002
Se      15.61321147       9.39785313       8.83417655       0.15169658      -0.00690490      -0.02705572
Se       4.13543291      13.55050814       8.84495110      -0.17179040       0.03031694      -0.03021185
Se      15.62628736      13.56186760       8.81663475       0.01730213       0.03100397       0.10780127
Se       4.10486213       1.04810550      13.17883535       0.00843594      -0.04989422       0.07114620
Se      15.63928492       1.03744061      13.17782833      -0.03228483       0.01952919       0.07369964
Se       4.11046256       5.22152649      13.18718514       0.00642708       0.00049356       0.01526584
Se      15.63222417       5.22512149      13.20078288       0.02831046      -0.04290408      -0.02125490
Se       4.11263970       9.38180633      13.19071961       0.03766978       0.06114864       0.05724193
Se      15.63658857       9.37764130      13.18105259       0.02495737       0.05285609       0.01524495
Se       4.10854878      13.56425947      13.18234833       0.03805222      -0.01289435       0.02997660
Se      15.63895248      13.55028636      13.17416148      -0.04512089       0.09253946       0.06235515
Se       7.39528793       3.12935832       4.24148753       0.00340140      -0.02544768       0.06342223
Se      18.90870075       3.12710441       4.25210099       0.04181782       0.04188057       0.03894351
Se       7.40014563       7.29858820       4.27081233      -0.03914868       0.07639451      -0.05300862
Se      18.91965028       7.29713285       4.25697908      -0.00388044       0.02097960       0.02249131
Se       7.39986697      11.49144034       4.25003015       0.01077681      -0.07058313      -0.00385085
Se      18.92244163      11.47971167       4.27094963      -0.02977524       0.01362524      -0.11154960
Se       7.41153573      15.65535206       4.25341114      -0.14277263      -0.01530809       0.01247136
Se      18.91983430      15.65157776       4.27283704      -0.04264354       0.01956175      -0.04824097
Se       7.39941152       3.12705842       8.61254170       0.01907889      -0.03694327       0.02535319
Se      18.90263788       3.13668044       8.60893774       0.05115667      -0.04427208       0.02495025
Se       7.40960830       7.29227463       8.61841026      -0.02973625       0.05989084      -0.04386625
Se      18.92627048       7.28368151       8.63732050      -0.03743446       0.11275843      -0.11360415
Se       7.39437397      11.48070408       8.62285234       0.00799871       0.01272910      -0.02559103
Se      18.92202953      11.48203196       8.62711170      -0.01139661      -0.00572795      -0.02826844
Se       7.40381753      15.67099108       8.62236112      -0.02215139      -0.07308848      -0.04545878
Se      18.93441459      15.66239305       8.59908035      -0.05510002      -0.03811172       0.10859169
Se       7.42473785       3.12537140      12.99319717      -0.01591963      -0.00457971      -0.06825046
Se      18.91503617       3.14172575      12.97135694       0.00324212      -0.07788321       0.01628839
Se       7.40488426       7.30267208      12.99403176      -0.04766974       0.01290166      -0.08110467
Se      18.91915492       7.31456341      12.95660096       0.01530708      -0.03072729       0.11486639
Se       7.39777109      11.48339864      12.98047788       0.00968038      -0.03104240      -0.00986796
Se      18.92437981      11.47563408      12.97872960      -0.01574354       0.02873518      -0.02587872
Se       7.41043909      15.63059537      12.98413523      -0.03294354       0.12508457      -0.03441571
Se      18.91142939      15.64425908      12.98160717       0.06945541       0.00293578      -0.01169721
Se       7.41090133       3.14150628      17.33799448      -0.04458677      -0.05392087       0.01449243
Se      18.92352565       3.13979552      17.33847190      -0.06380417      -0.04180726      -0.02412769
Se       7.39169601       7.29885164      17.34772414       0.00869563       0.02845129      -0.03613571
Se      18.91434677       7.29474216      17.32249698       0.00218947       0.05670951       0.05226131
Se       7.40694513      11.47382534      17.34264949      -0.07100849       0.01658817      -0.01546688
Se      18.92716531      11.46620388      17.33889424      -0.07069276       0.04126860      -0.00050977
Se       7.39691988      15.65717969      17.35173721       0.06101135      -0.01177417      -0.06229507
Se      18.90147372      15.65908024      17.34966085       0.08768518      -0.03757177      -0.06474557
Se       1.63869234       3.12974037       2.29138346      -0.03452524       0.02744582      -0.00929782
Se      13.16014570       3.13693837       2.29281177      -0.02242664      -0.00910182      -0.00796743
Se       1.63073639       7.31510665       2.29886680       0.02009168      -0.03511256      -0.02193029
Se      13.15855836       7.29026243       2.28605151       0.04155128       0.07176945      -0.02546674
Se       1.64250017      11.46784712       2.28359759       0.08614964       0.04408356      -0.01654575
Se      13.14260383      11.48536605       2.28885852       0.06431337      -0.03229996      -0.03889507
Se       1.62409828      15.65689691       2.28663388       0.11639321      -0.03397995       0.00008646
Se      13.16186167      15.64946694       2.27918418       0.00868890      -0.03005359       0.04197113
Se       1.63284766       3.12573314       6.64849110       0.02269351       0.02818742       0.01551500
Se      13.15817711       3.12920765       6.64406965      -0.03777296       0.01298880       0.04273238
Se       1.63704208       7.33028123       6.64059560       0.04106431      -0.11672126       0.06618608
Se      13.15111781       7.33814253       6.65251298      -0.01458691      -0.14673376       0.02128982
Se       1.62675630      11.48772000       6.63920246       0.07723226      -0.03924164       0.07559604
Se      13.16578814      11.47718350       6.64390489      -0.00307579       0.03487031      -0.01978639
Se       1.65664776      15.65904628       6.65803274      -0.09481992      -0.06410886      -0.04042003
Se      13.16104673      15.64893782       6.65441639      -0.02003480       0.03286917      -0.04282681
Se       1.65264826       3.13246222      11.02742316      -0.11547952       0.01757610      -0.07523068
Se      13.16520240       3.13323467      11.01192159      -0.08307130       0.02042013       0.01025607
Se       1.64192848       7.29269160      11.00850601      -0.01636715       0.07560497      -0.04183917
Se      13.15890939       7.30104313      11.01278350      -0.01819958      -0.01752423      -0.05450539
Se       1.64076918      11.48703004      11.01603785       0.01059509      -0.04392851      -0.02550278
Se      13.15836906      11.46562100      11.02731396       0.00295488       0.06901043      -0.09201450
Se       1.63913720      15.65257340      11.00598152      -0.01594924      -0.04051186       0.00089290
Se      13.15181341      15.66882284      11.02326717       0.01930897      -0.05008686      -0.08681696
Se       1.64500004       3.13003984      15.37670179      -0.02705097       0.00850694      -0.04490749
Se      13.15743550       3.12921262      15.37389167       0.03555962       0.00245228      -0.02697221
Se       1.63614453       7.30772663      15.37255282       0.03443015      -0.01160127      -0.02968211
Se      13.16272689       7.29901261      15.37761197      -0.05187136       0.03267671      -0.03093173
Se       1.63149299      11.47356746      15.36522136       0.02972812       0.04231434       0.05139704
Se      13.14597701      11.48944975      15.36082008       0.05497551      -0.03574324       0.05437990
Se       1.63356695      15.66593634      15.36480478       0.03224408      -0.07854567       0.01366841
Se      13.15481610      15.64326197      15.37884012       0.01739479       0.01916426      -0.04540673
Se       9.88227872       1.05145973       2.08085733      -0.04371848      -0.04772301      -0.05971222
Se      21.39068867       1.03882651       2.06733234      -0.00755628       0.02081387      -0.02370337
Se       9.88671042       5.22580746       2.06854899      -0.07975175       0.00417019       0.01832346
Se      21.39035110       5.21515826       2.06419992      -0.01448042      -0.01357622       0.01782529
Se       9.87558788       9.38809363       2.06595666      -0.04912881      -0.00016611      -0.00374561
Se      21.37516146       9.37661052       2.07176777       0.11324389       0.06080493       0.00192051
Se       9.87296041      13.55758469       2.08198942      -0.02316327       0.00274614      -0.04265023
Se      21.38929732      13.57210655       2.07365292      -0.01552886      -0.01525762      -0.01744727
Se       9.86594019       1.04521145       6.42395916      -0.03004703       0.01233137       0.06988027
Se      21.39534717       1.03469878       6.44576823       0.01371048       0.06283611      -0.02243384
Se       9.87042680       5.22878475       6.42535968       0.05329715      -0.08834984       0.01594820
Se      21.38317509       5.22196876       6.44829088       0.08014164      -0.00329766      -0.03309620
Se       9.89047745       9.39266222       6.45496337      -0.08910215       0.02483181      -0.07940905
Se      21.38705614       9.40323623       6.42716410       0.06378109      -0.01910652       0.07417122
Se       9.87801337      13.54292076       6.42537000      -0.04934385       0.09470213      -0.00226602
Se      21.39461955      13.55321331       6.44085541       0.01288903       0.03700551       0.00881907
Se       9.88287594       1.03905707      10.78800026      -0.01486145       0.02075486       0.02002571
Se      21.38521092       1.03441215      10.79667765       0.00695765       0.02486498       0.01523736
Se       9.87483227       5.21509931      10.81443338       0.04816573      -0.01544548      -0.11181023
Se      21.38275874       5.23207375      10.78727740       0.06920257      -0.07384279       0.03507926
Se       9.87453914       9.40407961      10.80900336      -0.02388244      -0.03597663      -0.04993511
Se      21.38575020       9.39779925      10.80190158       0.05183683       0.00226253      -0.01674828
Se       9.86841197      13.57249719      10.81631471       0.01247099      -0.01234484      -0.08157101
Se      21.39466979      13.57200126      10.80441134      -0.01254948      -0.02687825      -0.00273547
Se       9.85920160       1.04867252      15.14862607       0.12351804      -0.05932698       0.07368600
Se      21.38405391       1.06568969      15.15626105       0.03213858      -0.08862127      -0.04757545
Se       9.86640962       5.22968524      15.14931690       0.04465963      -0.03955665       0.05960415
Se      21.38547859       5.23064994      15.15922134      -0.03694575      -0.07453104      -0.04097564
Se       9.85819539       9.39768845      15.15482901       0.06312851      -0.02322835       0.04389092
Se      21.40535130       9.38618668      15.16930593      -0.08482036      -0.00478331      -0.02199546
Se       9.89156834      13.55782826      15.15686154      -0.06477301       0.06740187       0.03065036
Se      21.39383904      13.55776424      15.16149662      -0.03184308       0.03472456      -0.01809248
Sn       7.12156713       1.04161960       1.78333559       0.01662976       0.04949464       0.00200597
Sn      18.64067040       1.04570908       1.77685794      -0.02850870       0.01398092       0.03644696
Sn       7.11826461       5.21697354       1.78239863       0.06384953      -0.01217006       0.02994545
Sn      18.63556926       5.22139881       1.76469858       0.00947149       0.00693203       0.05301349
Sn       7.11651167       9.38944928       1.77428505       0.02536798      -0.01321022       0.02001465
Sn      18.65624973       9.39243717       1.78461390      -0.10653080      -0.06475442      -0.00910268
Sn       7.11898402      13.56617991       1.77069367       0.04044864      -0.00801313       0.02719181
Sn      18.63825958      13.55696761       1.78007217       0.01212484       0.02313225       0.00201929
Sn       7.09821716       1.03279024       6.15858935       0.09766316       0.05083294      -0.06538141
Sn      18.64826173       1.05726067       6.15782730      -0.02180702      -0.03518414      -0.02434500
Sn       7.13054620       5.21363073       6.13357757      -0.05493155      -0.03789967       0.02536392
Sn      18.65142520       5.21880509       6.16889031      -0.06326605      -0.00613153      -0.08074925
Sn       7.12016535       9.41197751       6.14238216       0.06221781      -0.03671604      -0.00489024
Sn      18.65331824       9.40921547       6.13372058      -0.05864469      -0.09416379       0.03477122
Sn       7.11896635      13.55600790       6.13165064       0.03377619       0.03862094       0.02251472
Sn      18.64662842      13.56437141       6.14447375       0.00195448       0.03832656       0.04701797
Sn       7.12937872       1.02549641      10.51792162      -0.00595824       0.09567202       0.00382051
Sn      18.63646681       1.04939429      10.51126109       0.00425671      -0.03026305      -0.05282574
Sn       7.13752430       5.21711084      10.48381759      -0.09941246      -0.03697230       0.07586058
Sn      18.64052903       5.22016648      10.49471135      -0.03358842      -0.03049290       0.09881215
Sn       7.12529124       9.38863837      10.49162642       0.03168633      -0.00451088       0.04728529
Sn      18.64667260       9.38661130      10.50099017      -0.05288571      -0.01196950       0.05863908
Sn       7.11919054      13.57869248      10.50464480      -0.00184759      -0.02443850       0.01911495
Sn      18.64074875      13.56193133      10.50968263       0.01937989       0.06455841      -0.04046998
Sn       7.13730951       1.05054888      14.87302651      -0.10782891      -0.02482524      -0.01231739
Sn      18.64602005       1.03026785      14.85739665      -0.06840764       0.03681278      -0.00108100
Sn       7.12176646       5.21090077      14.85551247      -0.00629476      -0.00584283       0.04164763
Sn      18.62123599       5.20469412      14.86359259       0.06765541       0.10862517      -0.04375582
Sn       7.12312207       9.38431802      14.86694709      -0.01322907       0.04032972       0.00077031
Sn      18.63561941       9.40315429      14.86454158       0.08133617      -0.08287511      -0.02712256
Sn       7.13077964      13.56836983      14.85213713       0.03098802      -0.05146516       0.06031127
Sn      18.63905117      13.55398145      14.86507663       0.00560688       0.03060273       0.00278479
Sn       4.38309983       3.13493447       2.56641125       0.01421504      -0.00423237       0.03951001
Sn      15.90683958       3.13683900       2.58891075       0.01557242      -0.00733702      -0.00438536
Sn       4.38290946       7.30538149       2.58167627       0.00173617       0.00876171       0.02826038
Sn      15.92216382       7.29039068       2.57072377      -0.06475253       0.06910877       0.03298968
Sn       4.41859577      11.47656215       2.56092486      -0.13035163      -0.01936931       0.08441705
Sn      15.90086706      11.45160439       2.58224400      -0.02269965       0.07193620       0.00699193
Sn       4.39864899      15.64426564       2.57512756      -0.09553273       0.03814545       0.01653726
Sn      15.91592910      15.63588011       2.56661908      -0.00576602       0.02807672       0.04054365
Sn       4.38826999       3.12359150       6.93800001      -0.01516127       0.06602060       0.01997346
Sn      15.89405506       3.13325798       6.93944635       0.08489692      -0.00099175      -0.00626609
Sn       4.39604305       7.30720798       6.94300558      -0.03036622      -0.04824248       0.04450613
Sn      15.89222949       7.31012990       6.93763001       0.06793940       0.01417472       0.01815855
Sn       4.38888516      11.48977577       6.93374432      -0.03675331      -0.03694809       0.04862718
Sn      15.92020440      11.49373788       6.94846652      -0.03590801      -0.07430315      -0.06367658
Sn       4.38074493      15.63151933       6.95172703       0.06424331       0.04330380       0.02694622
Sn      15.90780641      15.64593029       6.95267430       0.01365979       0.06361564      -0.06300020
Sn       4.38193555       3.12687329      11.30729146       0.10238009       0.02972827      -0.04107113
Sn      15.89555653       3.13002004      11.31293393       0.11039410       0.02346025      -0.02623256
Sn       4.39266225       7.31767825      11.31337858      -0.00277102      -0.08704378      -0.07104821
Sn      15.90676994       7.28183657      11.29098483       0.00481562       0.06129633       0.01321700
Sn       4.39818448      11.46379061      11.29877563      -0.01308141       0.03842396      -0.01504656
Sn      15.91007737      11.49398883      11.29629236      -0.01347237      -0.10300680       0.00677069
Sn       4.38411626      15.65285781      11.30555169       0.00945919       0.02135838      -0.02666577
Sn      15.90515009      15.66387495      11.29405112      -0.00671904      -0.04230255       0.01353458
Sn       4.39175275       3.13556697      15.65914411       0.00882395       0.01584891      -0.02027970
Sn      15.91508966       3.13260443      15.67103489      -0.04993384      -0.01266660       0.00650288
Sn       4.39249218       7.30896803      15.65682252      -0.03437182      -0.07601441       0.02817528
Sn      15.90038484       7.31744795      15.66950154       0.03736224      -0.05212042      -0.03467243
Sn       4.38032149      11.48110176      15.63940868       0.02599392      -0.01046951       0.05674623
Sn      15.90095316      11.48890340      15.66189498      -0.01366690      -0.02154802      -0.01632197
Sn       4.39173027      15.62321845      15.65922390      -0.01590568       0.13442032      -0.01065704
Sn      15.91007528      15.65803516      15.67276999      -0.00432433       0.01271213      -0.04316544
Sn      10.14651927       3.12945829       3.95007697      -0.00455949       0.03822995       0.04473135
Sn      21.66271806       3.11849909       3.94491944      -0.02663788       0.01726448       0.04034607
Sn      10.13777006       7.32029083       3.96069253       0.05837548      -0.05579411       0.00167004
Sn      21.66696204       7.30006902       3.94549263      -0.01036483      -0.01071326       0.06062164
Sn      10.15798298      11.45757114       3.95785022      -0.00624818       0.04204112       0.00700746
Sn      21.66421712      11.48159802       3.95613345       0.04544385      -0.00383787       0.01375959
Sn      10.13024224      15.64537133       3.95591056       0.12708657       0.02622416       0.04398654
Sn      21.65703234      15.66308285       3.95126211       0.05380691      -0.03396965       0.05638208
Sn      10.15163164       3.13269781       8.33410657      -0.04901416      -0.02718751      -0.08163058
Sn      21.66343195       3.13902615       8.32277982      -0.01733343      -0.03663376       0.01500164
Sn      10.15296578       7.29017457       8.29811924       0.04380254       0.04728681       0.09263626
Sn      21.66853874       7.30951582       8.32925705       0.01603840       0.02669276      -0.01860500
Sn      10.14337253      11.49419035       8.31990324       0.03963230      -0.05355017       0.06356429
Sn      21.66897206      11.48523949       8.34168942      -0.02072363      -0.03738788      -0.06631459
Sn      10.14545155      15.64685034       8.30952057       0.04304462       0.02391912      -0.02434923
Sn      21.68028694      15.65759637       8.32903263      -0.02384781      -0.02837160      -0.03069955
Sn      10.17978889       3.13436529      12.67258269      -0.04046424      -0.03959870       0.06091262
Sn      21.66280424       3.12136702      12.68164722      -0.00343431       0.05776539      -0.03567843
Sn      10.14459596       7.29933374      12.67167308       0.05911065       0.06405731       0.08422903
Sn      21.68068829       7.30819246      12.68335118      -0.06176100       0.00257345       0.01576724
Sn      10.15619823      11.48400380      12.68836281      -0.03806902      -0.02541460       0.01740490
Sn      21.67161325      11.48063247      12.69230812       0.00167019      -0.01835361       0.00427341
Sn      10.15615297      15.65500945      12.68340196       0.02118831       0.00686799       0.02098609
Sn      21.68006725      15.64860325      12.68951904      -0.06442497       0.01073340      -0.00571117
Sn      10.15276094       3.12501927      17.03863156       0.01596404       0.06075636      -0.02036178
Sn      21.66122475       3.12619268      17.03212848       0.06997837       0.07087940       0.04416369
Sn      10.14210690       7.30786621      17.05936922      -0.00691770      -0.00853819      -0.06474436
Sn      21.67030718       7.27920864      17.05312282      -0.02315384       0.07346372      -0.02291663
Sn      10.14304033      11.48382392      17.04656843       0.05004093      -0.02593841      -0.00832477
Sn      21.66283639      11.47827077      17.04648554       0.06648841      -0.02196795       0.01480922
Sn      10.16206590      15.65318566      17.05756514      -0.07015453      -0.00590786      -0.06138550
Sn      21.67416233      15.66005272      17.02884359      -0.06464058      -0.01730679       0.03246812
Sn       1.37691195       1.03949126       0.40644013      -0.01742057       0.03259656      -0.03194305
Sn      12.87216171       1.03221953       0.41904674       0.01748034       0.06583913      -0.03902097
Sn       1.35617579       5.22962048       0.40046706       0.03881057      -0.03495847       0.00989126
Sn      12.87768584       5.21771113       0.38627191      -0.03611436      -0.00256564       0.03638794
Sn       1.36560808       9.38142115       0.39532842      -0.00925752       0.02217609       0.00528454
Sn      12.89114004       9.39479046       0.38446115      -0.04974213      -0.03802507       0.07239515
Sn       1.37426050      13.56626670       0.39386100      -0.10578605      -0.01017532       0.04935292
Sn      12.88935380      13.56466563       0.38762624      -0.03410315      -0.00333067       0.01916672
Sn       1.38422372       1.04389740       4.75957288      -0.09390922      -0.02448380      -0.01640727
Sn      12.87783599       1.05586993       4.75513795       0.02734942      -0.08216966      -0.00362750
Sn       1.35029582       5.21137264       4.77365448       0.03955958       0.02474643      -0.02149953
Sn      12.89020836       5.21560926       4.77411929      -0.01563705       0.06005922      -0.07332911
Sn       1.37322504       9.38958266       4.75872764      -0.00161731       0.04244740      -0.06234457
Sn      12.88518022       9.38392968       4.76043179       0.04307287       0.07474006      -0.04262727
Sn       1.36883075      13.54946803       4.75849353      -0.04463225       0.09431832      -0.02189561
Sn      12.87885648      13.57661837       4.74194177       0.05217355      -0.02649538       0.06540229
Sn       1.36193056       1.03925273       9.13109133      -0.04514258       0.03165726      -0.00932824
Sn      12.88145157       1.06203122       9.12811275       0.01600302      -0.07799082      -0.01274959
Sn       1.36164339       5.22055600       9.11794993       0.09164702      -0.01717765       0.04799316
Sn      12.89048100       5.20483744       9.11325366       0.00559461       0.07383191       0.05184423
Sn       1.37030252       9.40450612       9.09947093      -0.03962569      -0.05609224       0.09627038
Sn      12.89563175       9.39084720       9.10265187      -0.12254764       0.01304102       0.06957554
Sn       1.33572834      13.55104383       9.12129357       0.16986657       0.05106878       0.02162643
Sn      12.88122806      13.57266970       9.11599574      -0.03020466      -0.02694644       0.06470318
Sn       1.35466521       1.03993941      13.48293060       0.02939444       0.04478751      -0.00067306
Sn      12.88419477       1.03617863      13.49160896       0.01650689      -0.00402160       0.01577194
Sn       1.35953165       5.20946224      13.47717058       0.01330595       0.02338590       0.02906636
Sn      12.89263544       5.21683145      13.47564936      -0.04551903       0.01671170       0.04361899
Sn       1.37500670       9.41367604      13.48469132      -0.08786675      -0.10874409      -0.02814984
Sn      12.89422546       9.40260933      13.47653810      -0.02039004      -0.06263791      -0.02020692
Sn       1.36601196      13.55351225      13.48054507      -0.03007551       0.06126214      -0.00388321
Sn      12.87562514      13.56230883      13.47509555       0.04619173       0.03713775      -0.01398882
