K  As Pt
 1.0000000000000000
     6.5082774614309020  -14.4719388182308055    0.0000000000000000
     6.5082774614309020   14.4719388182308055    0.0000000000000000
     0.0000000000000000    0.0000000000000000   18.6007569111392748
 K   As  Pt 
  48  48  24
Direct
  0.2892837734786474  0.2107162265213524  0.0833333333333333
  0.7892837734786474  0.2107162265213524  0.0833333333333333
  0.2892837734786474  0.7107162265213525  0.0833333333333333
  0.7892837734786474  0.7107162265213525  0.0833333333333333
  0.2892837734786474  0.2107162265213524  0.4166666666666667
  0.7892837734786474  0.2107162265213524  0.4166666666666667
  0.2892837734786474  0.7107162265213525  0.4166666666666667
  0.7892837734786474  0.7107162265213525  0.4166666666666667
  0.2892837734786474  0.2107162265213524  0.7500000000000001
  0.7892837734786474  0.2107162265213524  0.7500000000000001
  0.2892837734786474  0.7107162265213525  0.7500000000000001
  0.7892837734786474  0.7107162265213525  0.7500000000000001
  0.2107162265213523  0.2892837734786475  0.2499999999999999
  0.7107162265213524  0.2892837734786475  0.2499999999999999
  0.2107162265213524  0.7892837734786475  0.2499999999999999
  0.7107162265213524  0.7892837734786475  0.2499999999999999
  0.2107162265213523  0.2892837734786475  0.5833333333333333
  0.7107162265213524  0.2892837734786475  0.5833333333333333
  0.2107162265213524  0.7892837734786475  0.5833333333333333
  0.7107162265213524  0.7892837734786475  0.5833333333333333
  0.2107162265213523  0.2892837734786475  0.9166666666666666
  0.7107162265213524  0.2892837734786475  0.9166666666666666
  0.2107162265213524  0.7892837734786475  0.9166666666666666
  0.7107162265213524  0.7892837734786475  0.9166666666666666
  0.1019718560263916  0.3980281439736082  0.0833333333333333
  0.6019718560263916  0.3980281439736082  0.0833333333333333
  0.1019718560263916  0.8980281439736081  0.0833333333333333
  0.6019718560263915  0.8980281439736081  0.0833333333333333
  0.1019718560263916  0.3980281439736082  0.4166666666666667
  0.6019718560263916  0.3980281439736082  0.4166666666666667
  0.1019718560263916  0.8980281439736081  0.4166666666666667
  0.6019718560263915  0.8980281439736081  0.4166666666666667
  0.1019718560263916  0.3980281439736082  0.7500000000000001
  0.6019718560263916  0.3980281439736082  0.7500000000000001
  0.1019718560263916  0.8980281439736081  0.7500000000000001
  0.6019718560263915  0.8980281439736081  0.7500000000000001
  0.3980281439736081  0.1019718560263919  0.2499999999999999
  0.8980281439736081  0.1019718560263919  0.2499999999999999
  0.3980281439736080  0.6019718560263918  0.2499999999999999
  0.8980281439736081  0.6019718560263919  0.2499999999999999
  0.3980281439736081  0.1019718560263919  0.5833333333333333
  0.8980281439736081  0.1019718560263919  0.5833333333333333
  0.3980281439736080  0.6019718560263918  0.5833333333333333
  0.8980281439736081  0.6019718560263919  0.5833333333333333
  0.3980281439736081  0.1019718560263919  0.9166666666666666
  0.8980281439736081  0.1019718560263919  0.9166666666666666
  0.3980281439736080  0.6019718560263918  0.9166666666666666
  0.8980281439736081  0.6019718560263919  0.9166666666666666
  0.0395758296851376  0.1492188628021615  0.0833333333333333
  0.5395758296851376  0.1492188628021616  0.0833333333333333
  0.0395758296851376  0.6492188628021615  0.0833333333333333
  0.5395758296851376  0.6492188628021616  0.0833333333333333
  0.0395758296851376  0.1492188628021615  0.4166666666666667
  0.5395758296851376  0.1492188628021616  0.4166666666666667
  0.0395758296851376  0.6492188628021615  0.4166666666666667
  0.5395758296851376  0.6492188628021616  0.4166666666666667
  0.0395758296851376  0.1492188628021615  0.7500000000000001
  0.5395758296851376  0.1492188628021616  0.7500000000000001
  0.0395758296851376  0.6492188628021615  0.7500000000000001
  0.5395758296851376  0.6492188628021616  0.7500000000000001
  0.1492188628021615  0.0395758296851376  0.2499999999999999
  0.6492188628021617  0.0395758296851377  0.2499999999999999
  0.1492188628021615  0.5395758296851376  0.2499999999999999
  0.6492188628021616  0.5395758296851376  0.2499999999999999
  0.1492188628021615  0.0395758296851376  0.5833333333333333
  0.6492188628021617  0.0395758296851377  0.5833333333333333
  0.1492188628021615  0.5395758296851376  0.5833333333333333
  0.6492188628021616  0.5395758296851376  0.5833333333333333
  0.1492188628021615  0.0395758296851376  0.9166666666666666
  0.6492188628021617  0.0395758296851377  0.9166666666666666
  0.1492188628021615  0.5395758296851376  0.9166666666666666
  0.6492188628021616  0.5395758296851376  0.9166666666666666
  0.4604241703148622  0.3507811371978384  0.2499999999999999
  0.9604241703148622  0.3507811371978384  0.2499999999999999
  0.4604241703148623  0.8507811371978385  0.2499999999999999
  0.9604241703148619  0.8507811371978383  0.2499999999999999
  0.4604241703148622  0.3507811371978384  0.5833333333333333
  0.9604241703148622  0.3507811371978384  0.5833333333333333
  0.4604241703148623  0.8507811371978385  0.5833333333333333
  0.9604241703148619  0.8507811371978383  0.5833333333333333
  0.4604241703148622  0.3507811371978384  0.9166666666666666
  0.9604241703148622  0.3507811371978384  0.9166666666666666
  0.4604241703148623  0.8507811371978385  0.9166666666666666
  0.9604241703148619  0.8507811371978383  0.9166666666666666
  0.3507811371978384  0.4604241703148624  0.0833333333333333
  0.8507811371978383  0.4604241703148623  0.0833333333333333
  0.3507811371978384  0.9604241703148623  0.0833333333333333
  0.8507811371978383  0.9604241703148623  0.0833333333333333
  0.3507811371978384  0.4604241703148624  0.4166666666666667
  0.8507811371978383  0.4604241703148623  0.4166666666666667
  0.3507811371978384  0.9604241703148623  0.4166666666666667
  0.8507811371978383  0.9604241703148623  0.4166666666666667
  0.3507811371978384  0.4604241703148624  0.7500000000000001
  0.8507811371978383  0.4604241703148623  0.7500000000000001
  0.3507811371978384  0.9604241703148623  0.7500000000000001
  0.8507811371978383  0.9604241703148623  0.7500000000000001
 -0.0000000000000000  0.0000000000000000  0.0000000000000000
  0.5000000000000000  0.0000000000000000  0.0000000000000000
 -0.0000000000000000  0.5000000000000000  0.0000000000000000
  0.4999999999999999  0.5000000000000000  0.0000000000000000
 -0.0000000000000000  0.0000000000000000  0.3333333333333333
  0.5000000000000000  0.0000000000000000  0.3333333333333333
 -0.0000000000000000  0.5000000000000000  0.3333333333333333
  0.4999999999999999  0.5000000000000000  0.3333333333333333
 -0.0000000000000000  0.0000000000000000  0.6666666666666666
  0.5000000000000000  0.0000000000000000  0.6666666666666666
 -0.0000000000000000  0.5000000000000000  0.6666666666666666
  0.4999999999999999  0.5000000000000000  0.6666666666666666
 -0.0000000000000000  0.0000000000000000  0.1666666666666666
  0.5000000000000000  0.0000000000000000  0.1666666666666666
 -0.0000000000000000  0.5000000000000000  0.1666666666666666
  0.4999999999999999  0.5000000000000000  0.1666666666666666
 -0.0000000000000000  0.0000000000000000  0.4999999999999999
  0.5000000000000000  0.0000000000000000  0.4999999999999999
 -0.0000000000000000  0.5000000000000000  0.4999999999999999
  0.4999999999999999  0.5000000000000000  0.4999999999999999
 -0.0000000000000000  0.0000000000000000  0.8333333333333334
  0.5000000000000000  0.0000000000000000  0.8333333333333334
 -0.0000000000000000  0.5000000000000000  0.8333333333333334
  0.4999999999999999  0.5000000000000000  0.8333333333333334
