Se Sn
 1.0000000000000000
    34.5484242600000044    0.0000000000000000    0.0000000000000000
     0.0000000000000000   20.8704457000000048    0.0000000000000000
     0.0000000000000000    0.0000000000000000   21.8055194000000014
 Se  Sn 
 300 300
Direct
  0.1191552933333333  0.0500000000000000  0.0048546640000000
  0.4524886266666666  0.0500000000000000  0.0048546640000000
  0.7858219600000000  0.0500000000000000  0.0048546640000000
  0.1191552933333333  0.2500000000000000  0.0048546640000000
  0.4524886266666666  0.2500000000000000  0.0048546640000000
  0.7858219600000000  0.2500000000000000  0.0048546640000000
  0.1191552933333333  0.4500000000000000  0.0048546640000000
  0.4524886266666666  0.4500000000000000  0.0048546640000000
  0.7858219600000000  0.4500000000000000  0.0048546640000000
  0.1191552933333333  0.6500000000000000  0.0048546640000000
  0.4524886266666666  0.6500000000000000  0.0048546640000000
  0.7858219600000000  0.6500000000000000  0.0048546640000000
  0.1191552933333333  0.8500000000000001  0.0048546640000000
  0.4524886266666666  0.8500000000000001  0.0048546640000000
  0.7858219600000000  0.8500000000000001  0.0048546640000000
  0.1191552933333333  0.0500000000000000  0.2048546640000000
  0.4524886266666666  0.0500000000000000  0.2048546640000000
  0.7858219600000000  0.0500000000000000  0.2048546640000000
  0.1191552933333333  0.2500000000000000  0.2048546640000000
  0.4524886266666666  0.2500000000000000  0.2048546640000000
  0.7858219600000000  0.2500000000000000  0.2048546640000000
  0.1191552933333333  0.4500000000000000  0.2048546640000000
  0.4524886266666666  0.4500000000000000  0.2048546640000000
  0.7858219600000000  0.4500000000000000  0.2048546640000000
  0.1191552933333333  0.6500000000000000  0.2048546640000000
  0.4524886266666666  0.6500000000000000  0.2048546640000000
  0.7858219600000000  0.6500000000000000  0.2048546640000000
  0.1191552933333333  0.8500000000000001  0.2048546640000000
  0.4524886266666666  0.8500000000000001  0.2048546640000000
  0.7858219600000000  0.8500000000000001  0.2048546640000000
  0.1191552933333333  0.0500000000000000  0.4048546640000000
  0.4524886266666666  0.0500000000000000  0.4048546640000000
  0.7858219600000000  0.0500000000000000  0.4048546640000000
  0.1191552933333333  0.2500000000000000  0.4048546640000000
  0.4524886266666666  0.2500000000000000  0.4048546640000000
  0.7858219600000000  0.2500000000000000  0.4048546640000000
  0.1191552933333333  0.4500000000000000  0.4048546640000000
  0.4524886266666666  0.4500000000000000  0.4048546640000000
  0.7858219600000000  0.4500000000000000  0.4048546640000000
  0.1191552933333333  0.6500000000000000  0.4048546640000000
  0.4524886266666666  0.6500000000000000  0.4048546640000000
  0.7858219600000000  0.6500000000000000  0.4048546640000000
  0.1191552933333333  0.8500000000000001  0.4048546640000000
  0.4524886266666666  0.8500000000000001  0.4048546640000000
  0.7858219600000000  0.8500000000000001  0.4048546640000000
  0.1191552933333333  0.0500000000000000  0.6048546640000000
  0.4524886266666666  0.0500000000000000  0.6048546640000000
  0.7858219600000000  0.0500000000000000  0.6048546640000000
  0.1191552933333333  0.2500000000000000  0.6048546640000000
  0.4524886266666666  0.2500000000000000  0.6048546640000000
  0.7858219600000000  0.2500000000000000  0.6048546640000000
  0.1191552933333333  0.4500000000000000  0.6048546640000000
  0.4524886266666666  0.4500000000000000  0.6048546640000000
  0.7858219600000000  0.4500000000000000  0.6048546640000000
  0.1191552933333333  0.6500000000000000  0.6048546640000000
  0.4524886266666666  0.6500000000000000  0.6048546640000000
  0.7858219600000000  0.6500000000000000  0.6048546640000000
  0.1191552933333333  0.8500000000000001  0.6048546640000000
  0.4524886266666666  0.8500000000000001  0.6048546640000000
  0.7858219600000000  0.8500000000000001  0.6048546640000000
  0.1191552933333333  0.0500000000000000  0.8048546640000001
  0.4524886266666666  0.0500000000000000  0.8048546640000001
  0.7858219600000000  0.0500000000000000  0.8048546640000001
  0.1191552933333333  0.2500000000000000  0.8048546640000001
  0.4524886266666666  0.2500000000000000  0.8048546640000001
  0.7858219600000000  0.2500000000000000  0.8048546640000001
  0.1191552933333333  0.4500000000000000  0.8048546640000001
  0.4524886266666666  0.4500000000000000  0.8048546640000001
  0.7858219600000000  0.4500000000000000  0.8048546640000001
  0.1191552933333333  0.6500000000000000  0.8048546640000001
  0.4524886266666666  0.6500000000000000  0.8048546640000001
  0.7858219600000000  0.6500000000000000  0.8048546640000001
  0.1191552933333333  0.8500000000000001  0.8048546640000001
  0.4524886266666666  0.8500000000000001  0.8048546640000001
  0.7858219600000000  0.8500000000000001  0.8048546640000001
  0.2141780400000000  0.1500000000000000  0.1951453360000000
  0.5475113733333333  0.1500000000000000  0.1951453360000000
  0.8808447066666667  0.1500000000000000  0.1951453360000000
  0.2141780400000000  0.3500000000000000  0.1951453360000000
  0.5475113733333333  0.3500000000000000  0.1951453360000000
  0.8808447066666667  0.3500000000000000  0.1951453360000000
  0.2141780400000000  0.5500000000000000  0.1951453360000000
  0.5475113733333333  0.5500000000000000  0.1951453360000000
  0.8808447066666667  0.5500000000000000  0.1951453360000000
  0.2141780400000000  0.7500000000000000  0.1951453360000000
  0.5475113733333333  0.7500000000000000  0.1951453360000000
  0.8808447066666667  0.7500000000000000  0.1951453360000000
  0.2141780400000000  0.9500000000000001  0.1951453360000000
  0.5475113733333333  0.9500000000000001  0.1951453360000000
  0.8808447066666667  0.9500000000000001  0.1951453360000000
  0.2141780400000000  0.1500000000000000  0.3951453360000000
  0.5475113733333333  0.1500000000000000  0.3951453360000000
  0.8808447066666667  0.1500000000000000  0.3951453360000000
  0.2141780400000000  0.3500000000000000  0.3951453360000000
  0.5475113733333333  0.3500000000000000  0.3951453360000000
  0.8808447066666667  0.3500000000000000  0.3951453360000000
  0.2141780400000000  0.5500000000000000  0.3951453360000000
  0.5475113733333333  0.5500000000000000  0.3951453360000000
  0.8808447066666667  0.5500000000000000  0.3951453360000000
  0.2141780400000000  0.7500000000000000  0.3951453360000000
  0.5475113733333333  0.7500000000000000  0.3951453360000000
  0.8808447066666667  0.7500000000000000  0.3951453360000000
  0.2141780400000000  0.9500000000000001  0.3951453360000000
  0.5475113733333333  0.9500000000000001  0.3951453360000000
  0.8808447066666667  0.9500000000000001  0.3951453360000000
  0.2141780400000000  0.1500000000000000  0.5951453360000000
  0.5475113733333333  0.1500000000000000  0.5951453360000000
  0.8808447066666667  0.1500000000000000  0.5951453360000000
  0.2141780400000000  0.3500000000000000  0.5951453360000000
  0.5475113733333333  0.3500000000000000  0.5951453360000000
  0.8808447066666667  0.3500000000000000  0.5951453360000000
  0.2141780400000000  0.5500000000000000  0.5951453360000000
  0.5475113733333333  0.5500000000000000  0.5951453360000000
  0.8808447066666667  0.5500000000000000  0.5951453360000000
  0.2141780400000000  0.7500000000000000  0.5951453360000000
  0.5475113733333333  0.7500000000000000  0.5951453360000000
  0.8808447066666667  0.7500000000000000  0.5951453360000000
  0.2141780400000000  0.9500000000000001  0.5951453360000000
  0.5475113733333333  0.9500000000000001  0.5951453360000000
  0.8808447066666667  0.9500000000000001  0.5951453360000000
  0.2141780400000000  0.1500000000000000  0.7951453360000000
  0.5475113733333333  0.1500000000000000  0.7951453360000000
  0.8808447066666667  0.1500000000000000  0.7951453360000000
  0.2141780400000000  0.3500000000000000  0.7951453360000000
  0.5475113733333333  0.3500000000000000  0.7951453360000000
  0.8808447066666667  0.3500000000000000  0.7951453360000000
  0.2141780400000000  0.5500000000000000  0.7951453360000000
  0.5475113733333333  0.5500000000000000  0.7951453360000000
  0.8808447066666667  0.5500000000000000  0.7951453360000000
  0.2141780400000000  0.7500000000000000  0.7951453360000000
  0.5475113733333333  0.7500000000000000  0.7951453360000000
  0.8808447066666667  0.7500000000000000  0.7951453360000000
  0.2141780400000000  0.9500000000000001  0.7951453360000000
  0.5475113733333333  0.9500000000000001  0.7951453360000000
  0.8808447066666667  0.9500000000000001  0.7951453360000000
  0.2141780400000000  0.1500000000000000  0.9951453360000000
  0.5475113733333333  0.1500000000000000  0.9951453360000000
  0.8808447066666667  0.1500000000000000  0.9951453360000000
  0.2141780400000000  0.3500000000000000  0.9951453360000000
  0.5475113733333333  0.3500000000000000  0.9951453360000000
  0.8808447066666667  0.3500000000000000  0.9951453360000000
  0.2141780400000000  0.5500000000000000  0.9951453360000000
  0.5475113733333333  0.5500000000000000  0.9951453360000000
  0.8808447066666667  0.5500000000000000  0.9951453360000000
  0.2141780400000000  0.7500000000000000  0.9951453360000000
  0.5475113733333333  0.7500000000000000  0.9951453360000000
  0.8808447066666667  0.7500000000000000  0.9951453360000000
  0.2141780400000000  0.9500000000000001  0.9951453360000000
  0.5475113733333333  0.9500000000000001  0.9951453360000000
  0.8808447066666667  0.9500000000000001  0.9951453360000000
  0.0475113733333333  0.1500000000000000  0.1048546640000000
  0.3808447066666667  0.1500000000000000  0.1048546640000000
  0.7141780400000000  0.1500000000000000  0.1048546640000000
  0.0475113733333333  0.3500000000000000  0.1048546640000000
  0.3808447066666667  0.3500000000000000  0.1048546640000000
  0.7141780400000000  0.3500000000000000  0.1048546640000000
  0.0475113733333333  0.5500000000000000  0.1048546640000000
  0.3808447066666667  0.5500000000000000  0.1048546640000000
  0.7141780400000000  0.5500000000000000  0.1048546640000000
  0.0475113733333333  0.7500000000000000  0.1048546640000000
  0.3808447066666667  0.7500000000000000  0.1048546640000000
  0.7141780400000000  0.7500000000000000  0.1048546640000000
  0.0475113733333333  0.9500000000000001  0.1048546640000000
  0.3808447066666667  0.9500000000000001  0.1048546640000000
  0.7141780400000000  0.9500000000000001  0.1048546640000000
  0.0475113733333333  0.1500000000000000  0.3048546640000001
  0.3808447066666667  0.1500000000000000  0.3048546640000001
  0.7141780400000000  0.1500000000000000  0.3048546640000001
  0.0475113733333333  0.3500000000000000  0.3048546640000001
  0.3808447066666667  0.3500000000000000  0.3048546640000001
  0.7141780400000000  0.3500000000000000  0.3048546640000001
  0.0475113733333333  0.5500000000000000  0.3048546640000001
  0.3808447066666667  0.5500000000000000  0.3048546640000001
  0.7141780400000000  0.5500000000000000  0.3048546640000001
  0.0475113733333333  0.7500000000000000  0.3048546640000001
  0.3808447066666667  0.7500000000000000  0.3048546640000001
  0.7141780400000000  0.7500000000000000  0.3048546640000001
  0.0475113733333333  0.9500000000000001  0.3048546640000001
  0.3808447066666667  0.9500000000000001  0.3048546640000001
  0.7141780400000000  0.9500000000000001  0.3048546640000001
  0.0475113733333333  0.1500000000000000  0.5048546640000000
  0.3808447066666667  0.1500000000000000  0.5048546640000000
  0.7141780400000000  0.1500000000000000  0.5048546640000000
  0.0475113733333333  0.3500000000000000  0.5048546640000000
  0.3808447066666667  0.3500000000000000  0.5048546640000000
  0.7141780400000000  0.3500000000000000  0.5048546640000000
  0.0475113733333333  0.5500000000000000  0.5048546640000000
  0.3808447066666667  0.5500000000000000  0.5048546640000000
  0.7141780400000000  0.5500000000000000  0.5048546640000000
  0.0475113733333333  0.7500000000000000  0.5048546640000000
  0.3808447066666667  0.7500000000000000  0.5048546640000000
  0.7141780400000000  0.7500000000000000  0.5048546640000000
  0.0475113733333333  0.9500000000000001  0.5048546640000000
  0.3808447066666667  0.9500000000000001  0.5048546640000000
  0.7141780400000000  0.9500000000000001  0.5048546640000000
  0.0475113733333333  0.1500000000000000  0.7048546640000000
  0.3808447066666667  0.1500000000000000  0.7048546640000000
  0.7141780400000000  0.1500000000000000  0.7048546640000000
  0.0475113733333333  0.3500000000000000  0.7048546640000000
  0.3808447066666667  0.3500000000000000  0.7048546640000000
  0.7141780400000000  0.3500000000000000  0.7048546640000000
  0.0475113733333333  0.5500000000000000  0.7048546640000000
  0.3808447066666667  0.5500000000000000  0.7048546640000000
  0.7141780400000000  0.5500000000000000  0.7048546640000000
  0.0475113733333333  0.7500000000000000  0.7048546640000000
  0.3808447066666667  0.7500000000000000  0.7048546640000000
  0.7141780400000000  0.7500000000000000  0.7048546640000000
  0.0475113733333333  0.9500000000000001  0.7048546640000000
  0.3808447066666667  0.9500000000000001  0.7048546640000000
  0.7141780400000000  0.9500000000000001  0.7048546640000000
  0.0475113733333333  0.1500000000000000  0.9048546640000000
  0.3808447066666667  0.1500000000000000  0.9048546640000000
  0.7141780400000000  0.1500000000000000  0.9048546640000000
  0.0475113733333333  0.3500000000000000  0.9048546640000000
  0.3808447066666667  0.3500000000000000  0.9048546640000000
  0.7141780400000000  0.3500000000000000  0.9048546640000000
  0.0475113733333333  0.5500000000000000  0.9048546640000000
  0.3808447066666667  0.5500000000000000  0.9048546640000000
  0.7141780400000000  0.5500000000000000  0.9048546640000000
  0.0475113733333333  0.7500000000000000  0.9048546640000000
  0.3808447066666667  0.7500000000000000  0.9048546640000000
  0.7141780400000000  0.7500000000000000  0.9048546640000000
  0.0475113733333333  0.9500000000000001  0.9048546640000000
  0.3808447066666667  0.9500000000000001  0.9048546640000000
  0.7141780400000000  0.9500000000000001  0.9048546640000000
  0.2858219600000000  0.0500000000000000  0.0951453360000000
  0.6191552933333333  0.0500000000000000  0.0951453360000000
  0.9524886266666666  0.0500000000000000  0.0951453360000000
  0.2858219600000000  0.2500000000000000  0.0951453360000000
  0.6191552933333333  0.2500000000000000  0.0951453360000000
  0.9524886266666666  0.2500000000000000  0.0951453360000000
  0.2858219600000000  0.4500000000000000  0.0951453360000000
  0.6191552933333333  0.4500000000000000  0.0951453360000000
  0.9524886266666666  0.4500000000000000  0.0951453360000000
  0.2858219600000000  0.6500000000000000  0.0951453360000000
  0.6191552933333333  0.6500000000000000  0.0951453360000000
  0.9524886266666666  0.6500000000000000  0.0951453360000000
  0.2858219600000000  0.8500000000000001  0.0951453360000000
  0.6191552933333333  0.8500000000000001  0.0951453360000000
  0.9524886266666666  0.8500000000000001  0.0951453360000000
  0.2858219600000000  0.0500000000000000  0.2951453360000000
  0.6191552933333333  0.0500000000000000  0.2951453360000000
  0.9524886266666666  0.0500000000000000  0.2951453360000000
  0.2858219600000000  0.2500000000000000  0.2951453360000000
  0.6191552933333333  0.2500000000000000  0.2951453360000000
  0.9524886266666666  0.2500000000000000  0.2951453360000000
  0.2858219600000000  0.4500000000000000  0.2951453360000000
  0.6191552933333333  0.4500000000000000  0.2951453360000000
  0.9524886266666666  0.4500000000000000  0.2951453360000000
  0.2858219600000000  0.6500000000000000  0.2951453360000000
  0.6191552933333333  0.6500000000000000  0.2951453360000000
  0.9524886266666666  0.6500000000000000  0.2951453360000000
  0.2858219600000000  0.8500000000000001  0.2951453360000000
  0.6191552933333333  0.8500000000000001  0.2951453360000000
  0.9524886266666666  0.8500000000000001  0.2951453360000000
  0.2858219600000000  0.0500000000000000  0.4951453360000000
  0.6191552933333333  0.0500000000000000  0.4951453360000000
  0.9524886266666666  0.0500000000000000  0.4951453360000000
  0.2858219600000000  0.2500000000000000  0.4951453360000000
  0.6191552933333333  0.2500000000000000  0.4951453360000000
  0.9524886266666666  0.2500000000000000  0.4951453360000000
  0.2858219600000000  0.4500000000000000  0.4951453360000000
  0.6191552933333333  0.4500000000000000  0.4951453360000000
  0.9524886266666666  0.4500000000000000  0.4951453360000000
  0.2858219600000000  0.6500000000000000  0.4951453360000000
  0.6191552933333333  0.6500000000000000  0.4951453360000000
  0.9524886266666666  0.6500000000000000  0.4951453360000000
  0.2858219600000000  0.8500000000000001  0.4951453360000000
  0.6191552933333333  0.8500000000000001  0.4951453360000000
  0.9524886266666666  0.8500000000000001  0.4951453360000000
  0.2858219600000000  0.0500000000000000  0.6951453360000001
  0.6191552933333333  0.0500000000000000  0.6951453360000001
  0.9524886266666666  0.0500000000000000  0.6951453360000001
  0.2858219600000000  0.2500000000000000  0.6951453360000001
  0.6191552933333333  0.2500000000000000  0.6951453360000001
  0.9524886266666666  0.2500000000000000  0.6951453360000001
  0.2858219600000000  0.4500000000000000  0.6951453360000001
  0.6191552933333333  0.4500000000000000  0.6951453360000001
  0.9524886266666666  0.4500000000000000  0.6951453360000001
  0.2858219600000000  0.6500000000000000  0.6951453360000001
  0.6191552933333333  0.6500000000000000  0.6951453360000001
  0.9524886266666666  0.6500000000000000  0.6951453360000001
  0.2858219600000000  0.8500000000000001  0.6951453360000001
  0.6191552933333333  0.8500000000000001  0.6951453360000001
  0.9524886266666666  0.8500000000000001  0.6951453360000001
  0.2858219600000000  0.0500000000000000  0.8951453360000001
  0.6191552933333333  0.0500000000000000  0.8951453360000001
  0.9524886266666666  0.0500000000000000  0.8951453360000001
  0.2858219600000000  0.2500000000000000  0.8951453360000001
  0.6191552933333333  0.2500000000000000  0.8951453360000001
  0.9524886266666666  0.2500000000000000  0.8951453360000001
  0.2858219600000000  0.4500000000000000  0.8951453360000001
  0.6191552933333333  0.4500000000000000  0.8951453360000001
  0.9524886266666666  0.4500000000000000  0.8951453360000001
  0.2858219600000000  0.6500000000000000  0.8951453360000001
  0.6191552933333333  0.6500000000000000  0.8951453360000001
  0.9524886266666666  0.6500000000000000  0.8951453360000001
  0.2858219600000000  0.8500000000000001  0.8951453360000001
  0.6191552933333333  0.8500000000000001  0.8951453360000001
  0.9524886266666666  0.8500000000000001  0.8951453360000001
  0.2062236833333333  0.0500000000000000  0.0817250720000000
  0.5395570166666667  0.0500000000000000  0.0817250720000000
  0.8728903500000000  0.0500000000000000  0.0817250720000000
  0.2062236833333333  0.2500000000000000  0.0817250720000000
  0.5395570166666667  0.2500000000000000  0.0817250720000000
  0.8728903500000000  0.2500000000000000  0.0817250720000000
  0.2062236833333333  0.4500000000000000  0.0817250720000000
  0.5395570166666667  0.4500000000000000  0.0817250720000000
  0.8728903500000000  0.4500000000000000  0.0817250720000000
  0.2062236833333333  0.6500000000000000  0.0817250720000000
  0.5395570166666667  0.6500000000000000  0.0817250720000000
  0.8728903500000000  0.6500000000000000  0.0817250720000000
  0.2062236833333333  0.8500000000000001  0.0817250720000000
  0.5395570166666667  0.8500000000000001  0.0817250720000000
  0.8728903500000000  0.8500000000000001  0.0817250720000000
  0.2062236833333333  0.0500000000000000  0.2817250720000000
  0.5395570166666667  0.0500000000000000  0.2817250720000000
  0.8728903500000000  0.0500000000000000  0.2817250720000000
  0.2062236833333333  0.2500000000000000  0.2817250720000000
  0.5395570166666667  0.2500000000000000  0.2817250720000000
  0.8728903500000000  0.2500000000000000  0.2817250720000000
  0.2062236833333333  0.4500000000000000  0.2817250720000000
  0.5395570166666667  0.4500000000000000  0.2817250720000000
  0.8728903500000000  0.4500000000000000  0.2817250720000000
  0.2062236833333333  0.6500000000000000  0.2817250720000000
  0.5395570166666667  0.6500000000000000  0.2817250720000000
  0.8728903500000000  0.6500000000000000  0.2817250720000000
  0.2062236833333333  0.8500000000000001  0.2817250720000000
  0.5395570166666667  0.8500000000000001  0.2817250720000000
  0.8728903500000000  0.8500000000000001  0.2817250720000000
  0.2062236833333333  0.0500000000000000  0.4817250720000000
  0.5395570166666667  0.0500000000000000  0.4817250720000000
  0.8728903500000000  0.0500000000000000  0.4817250720000000
  0.2062236833333333  0.2500000000000000  0.4817250720000000
  0.5395570166666667  0.2500000000000000  0.4817250720000000
  0.8728903500000000  0.2500000000000000  0.4817250720000000
  0.2062236833333333  0.4500000000000000  0.4817250720000000
  0.5395570166666667  0.4500000000000000  0.4817250720000000
  0.8728903500000000  0.4500000000000000  0.4817250720000000
  0.2062236833333333  0.6500000000000000  0.4817250720000000
  0.5395570166666667  0.6500000000000000  0.4817250720000000
  0.8728903500000000  0.6500000000000000  0.4817250720000000
  0.2062236833333333  0.8500000000000001  0.4817250720000000
  0.5395570166666667  0.8500000000000001  0.4817250720000000
  0.8728903500000000  0.8500000000000001  0.4817250720000000
  0.2062236833333333  0.0500000000000000  0.6817250720000000
  0.5395570166666667  0.0500000000000000  0.6817250720000000
  0.8728903500000000  0.0500000000000000  0.6817250720000000
  0.2062236833333333  0.2500000000000000  0.6817250720000000
  0.5395570166666667  0.2500000000000000  0.6817250720000000
  0.8728903500000000  0.2500000000000000  0.6817250720000000
  0.2062236833333333  0.4500000000000000  0.6817250720000000
  0.5395570166666667  0.4500000000000000  0.6817250720000000
  0.8728903500000000  0.4500000000000000  0.6817250720000000
  0.2062236833333333  0.6500000000000000  0.6817250720000000
  0.5395570166666667  0.6500000000000000  0.6817250720000000
  0.8728903500000000  0.6500000000000000  0.6817250720000000
  0.2062236833333333  0.8500000000000001  0.6817250720000000
  0.5395570166666667  0.8500000000000001  0.6817250720000000
  0.8728903500000000  0.8500000000000001  0.6817250720000000
  0.2062236833333333  0.0500000000000000  0.8817250720000001
  0.5395570166666667  0.0500000000000000  0.8817250720000001
  0.8728903500000000  0.0500000000000000  0.8817250720000001
  0.2062236833333333  0.2500000000000000  0.8817250720000001
  0.5395570166666667  0.2500000000000000  0.8817250720000001
  0.8728903500000000  0.2500000000000000  0.8817250720000001
  0.2062236833333333  0.4500000000000000  0.8817250720000001
  0.5395570166666667  0.4500000000000000  0.8817250720000001
  0.8728903500000000  0.4500000000000000  0.8817250720000001
  0.2062236833333333  0.6500000000000000  0.8817250720000001
  0.5395570166666667  0.6500000000000000  0.8817250720000001
  0.8728903500000000  0.6500000000000000  0.8817250720000001
  0.2062236833333333  0.8500000000000001  0.8817250720000001
  0.5395570166666667  0.8500000000000001  0.8817250720000001
  0.8728903500000000  0.8500000000000001  0.8817250720000001
  0.1271096500000000  0.1500000000000000  0.1182749280000000
  0.4604429833333333  0.1500000000000000  0.1182749280000000
  0.7937763166666666  0.1500000000000000  0.1182749280000000
  0.1271096500000000  0.3500000000000000  0.1182749280000000
  0.4604429833333333  0.3500000000000000  0.1182749280000000
  0.7937763166666666  0.3500000000000000  0.1182749280000000
  0.1271096500000000  0.5500000000000000  0.1182749280000000
  0.4604429833333333  0.5500000000000000  0.1182749280000000
  0.7937763166666666  0.5500000000000000  0.1182749280000000
  0.1271096500000000  0.7500000000000000  0.1182749280000000
  0.4604429833333333  0.7500000000000000  0.1182749280000000
  0.7937763166666666  0.7500000000000000  0.1182749280000000
  0.1271096500000000  0.9500000000000001  0.1182749280000000
  0.4604429833333333  0.9500000000000001  0.1182749280000000
  0.7937763166666666  0.9500000000000001  0.1182749280000000
  0.1271096500000000  0.1500000000000000  0.3182749280000000
  0.4604429833333333  0.1500000000000000  0.3182749280000000
  0.7937763166666666  0.1500000000000000  0.3182749280000000
  0.1271096500000000  0.3500000000000000  0.3182749280000000
  0.4604429833333333  0.3500000000000000  0.3182749280000000
  0.7937763166666666  0.3500000000000000  0.3182749280000000
  0.1271096500000000  0.5500000000000000  0.3182749280000000
  0.4604429833333333  0.5500000000000000  0.3182749280000000
  0.7937763166666666  0.5500000000000000  0.3182749280000000
  0.1271096500000000  0.7500000000000000  0.3182749280000000
  0.4604429833333333  0.7500000000000000  0.3182749280000000
  0.7937763166666666  0.7500000000000000  0.3182749280000000
  0.1271096500000000  0.9500000000000001  0.3182749280000000
  0.4604429833333333  0.9500000000000001  0.3182749280000000
  0.7937763166666666  0.9500000000000001  0.3182749280000000
  0.1271096500000000  0.1500000000000000  0.5182749280000000
  0.4604429833333333  0.1500000000000000  0.5182749280000000
  0.7937763166666666  0.1500000000000000  0.5182749280000000
  0.1271096500000000  0.3500000000000000  0.5182749280000000
  0.4604429833333333  0.3500000000000000  0.5182749280000000
  0.7937763166666666  0.3500000000000000  0.5182749280000000
  0.1271096500000000  0.5500000000000000  0.5182749280000000
  0.4604429833333333  0.5500000000000000  0.5182749280000000
  0.7937763166666666  0.5500000000000000  0.5182749280000000
  0.1271096500000000  0.7500000000000000  0.5182749280000000
  0.4604429833333333  0.7500000000000000  0.5182749280000000
  0.7937763166666666  0.7500000000000000  0.5182749280000000
  0.1271096500000000  0.9500000000000001  0.5182749280000000
  0.4604429833333333  0.9500000000000001  0.5182749280000000
  0.7937763166666666  0.9500000000000001  0.5182749280000000
  0.1271096500000000  0.1500000000000000  0.7182749280000000
  0.4604429833333333  0.1500000000000000  0.7182749280000000
  0.7937763166666666  0.1500000000000000  0.7182749280000000
  0.1271096500000000  0.3500000000000000  0.7182749280000000
  0.4604429833333333  0.3500000000000000  0.7182749280000000
  0.7937763166666666  0.3500000000000000  0.7182749280000000
  0.1271096500000000  0.5500000000000000  0.7182749280000000
  0.4604429833333333  0.5500000000000000  0.7182749280000000
  0.7937763166666666  0.5500000000000000  0.7182749280000000
  0.1271096500000000  0.7500000000000000  0.7182749280000000
  0.4604429833333333  0.7500000000000000  0.7182749280000000
  0.7937763166666666  0.7500000000000000  0.7182749280000000
  0.1271096500000000  0.9500000000000001  0.7182749280000000
  0.4604429833333333  0.9500000000000001  0.7182749280000000
  0.7937763166666666  0.9500000000000001  0.7182749280000000
  0.1271096500000000  0.1500000000000000  0.9182749280000000
  0.4604429833333333  0.1500000000000000  0.9182749280000000
  0.7937763166666666  0.1500000000000000  0.9182749280000000
  0.1271096500000000  0.3500000000000000  0.9182749280000000
  0.4604429833333333  0.3500000000000000  0.9182749280000000
  0.7937763166666666  0.3500000000000000  0.9182749280000000
  0.1271096500000000  0.5500000000000000  0.9182749280000000
  0.4604429833333333  0.5500000000000000  0.9182749280000000
  0.7937763166666666  0.5500000000000000  0.9182749280000000
  0.1271096500000000  0.7500000000000000  0.9182749280000000
  0.4604429833333333  0.7500000000000000  0.9182749280000000
  0.7937763166666666  0.7500000000000000  0.9182749280000000
  0.1271096500000000  0.9500000000000001  0.9182749280000000
  0.4604429833333333  0.9500000000000001  0.9182749280000000
  0.7937763166666666  0.9500000000000001  0.9182749280000000
  0.2937763166666667  0.1500000000000000  0.1817250720000000
  0.6271096500000000  0.1500000000000000  0.1817250720000000
  0.9604429833333333  0.1500000000000000  0.1817250720000000
  0.2937763166666667  0.3500000000000000  0.1817250720000000
  0.6271096500000000  0.3500000000000000  0.1817250720000000
  0.9604429833333333  0.3500000000000000  0.1817250720000000
  0.2937763166666667  0.5500000000000000  0.1817250720000000
  0.6271096500000000  0.5500000000000000  0.1817250720000000
  0.9604429833333333  0.5500000000000000  0.1817250720000000
  0.2937763166666667  0.7500000000000000  0.1817250720000000
  0.6271096500000000  0.7500000000000000  0.1817250720000000
  0.9604429833333333  0.7500000000000000  0.1817250720000000
  0.2937763166666667  0.9500000000000001  0.1817250720000000
  0.6271096500000000  0.9500000000000001  0.1817250720000000
  0.9604429833333333  0.9500000000000001  0.1817250720000000
  0.2937763166666667  0.1500000000000000  0.3817250720000001
  0.6271096500000000  0.1500000000000000  0.3817250720000001
  0.9604429833333333  0.1500000000000000  0.3817250720000001
  0.2937763166666667  0.3500000000000000  0.3817250720000001
  0.6271096500000000  0.3500000000000000  0.3817250720000001
  0.9604429833333333  0.3500000000000000  0.3817250720000001
  0.2937763166666667  0.5500000000000000  0.3817250720000001
  0.6271096500000000  0.5500000000000000  0.3817250720000001
  0.9604429833333333  0.5500000000000000  0.3817250720000001
  0.2937763166666667  0.7500000000000000  0.3817250720000001
  0.6271096500000000  0.7500000000000000  0.3817250720000001
  0.9604429833333333  0.7500000000000000  0.3817250720000001
  0.2937763166666667  0.9500000000000001  0.3817250720000001
  0.6271096500000000  0.9500000000000001  0.3817250720000001
  0.9604429833333333  0.9500000000000001  0.3817250720000001
  0.2937763166666667  0.1500000000000000  0.5817250720000001
  0.6271096500000000  0.1500000000000000  0.5817250720000001
  0.9604429833333333  0.1500000000000000  0.5817250720000001
  0.2937763166666667  0.3500000000000000  0.5817250720000001
  0.6271096500000000  0.3500000000000000  0.5817250720000001
  0.9604429833333333  0.3500000000000000  0.5817250720000001
  0.2937763166666667  0.5500000000000000  0.5817250720000001
  0.6271096500000000  0.5500000000000000  0.5817250720000001
  0.9604429833333333  0.5500000000000000  0.5817250720000001
  0.2937763166666667  0.7500000000000000  0.5817250720000001
  0.6271096500000000  0.7500000000000000  0.5817250720000001
  0.9604429833333333  0.7500000000000000  0.5817250720000001
  0.2937763166666667  0.9500000000000001  0.5817250720000001
  0.6271096500000000  0.9500000000000001  0.5817250720000001
  0.9604429833333333  0.9500000000000001  0.5817250720000001
  0.2937763166666667  0.1500000000000000  0.7817250720000000
  0.6271096500000000  0.1500000000000000  0.7817250720000000
  0.9604429833333333  0.1500000000000000  0.7817250720000000
  0.2937763166666667  0.3500000000000000  0.7817250720000000
  0.6271096500000000  0.3500000000000000  0.7817250720000000
  0.9604429833333333  0.3500000000000000  0.7817250720000000
  0.2937763166666667  0.5500000000000000  0.7817250720000000
  0.6271096500000000  0.5500000000000000  0.7817250720000000
  0.9604429833333333  0.5500000000000000  0.7817250720000000
  0.2937763166666667  0.7500000000000000  0.7817250720000000
  0.6271096500000000  0.7500000000000000  0.7817250720000000
  0.9604429833333333  0.7500000000000000  0.7817250720000000
  0.2937763166666667  0.9500000000000001  0.7817250720000000
  0.6271096500000000  0.9500000000000001  0.7817250720000000
  0.9604429833333333  0.9500000000000001  0.7817250720000000
  0.2937763166666667  0.1500000000000000  0.9817250720000000
  0.6271096500000000  0.1500000000000000  0.9817250720000000
  0.9604429833333333  0.1500000000000000  0.9817250720000000
  0.2937763166666667  0.3500000000000000  0.9817250720000000
  0.6271096500000000  0.3500000000000000  0.9817250720000000
  0.9604429833333333  0.3500000000000000  0.9817250720000000
  0.2937763166666667  0.5500000000000000  0.9817250720000000
  0.6271096500000000  0.5500000000000000  0.9817250720000000
  0.9604429833333333  0.5500000000000000  0.9817250720000000
  0.2937763166666667  0.7500000000000000  0.9817250720000000
  0.6271096500000000  0.7500000000000000  0.9817250720000000
  0.9604429833333333  0.7500000000000000  0.9817250720000000
  0.2937763166666667  0.9500000000000001  0.9817250720000000
  0.6271096500000000  0.9500000000000001  0.9817250720000000
  0.9604429833333333  0.9500000000000001  0.9817250720000000
  0.0395570166666667  0.0500000000000000  0.0182749280000000
  0.3728903500000000  0.0500000000000000  0.0182749280000000
  0.7062236833333334  0.0500000000000000  0.0182749280000000
  0.0395570166666667  0.2500000000000000  0.0182749280000000
  0.3728903500000000  0.2500000000000000  0.0182749280000000
  0.7062236833333334  0.2500000000000000  0.0182749280000000
  0.0395570166666667  0.4500000000000000  0.0182749280000000
  0.3728903500000000  0.4500000000000000  0.0182749280000000
  0.7062236833333334  0.4500000000000000  0.0182749280000000
  0.0395570166666667  0.6500000000000000  0.0182749280000000
  0.3728903500000000  0.6500000000000000  0.0182749280000000
  0.7062236833333334  0.6500000000000000  0.0182749280000000
  0.0395570166666667  0.8500000000000001  0.0182749280000000
  0.3728903500000000  0.8500000000000001  0.0182749280000000
  0.7062236833333334  0.8500000000000001  0.0182749280000000
  0.0395570166666667  0.0500000000000000  0.2182749280000000
  0.3728903500000000  0.0500000000000000  0.2182749280000000
  0.7062236833333334  0.0500000000000000  0.2182749280000000
  0.0395570166666667  0.2500000000000000  0.2182749280000000
  0.3728903500000000  0.2500000000000000  0.2182749280000000
  0.7062236833333334  0.2500000000000000  0.2182749280000000
  0.0395570166666667  0.4500000000000000  0.2182749280000000
  0.3728903500000000  0.4500000000000000  0.2182749280000000
  0.7062236833333334  0.4500000000000000  0.2182749280000000
  0.0395570166666667  0.6500000000000000  0.2182749280000000
  0.3728903500000000  0.6500000000000000  0.2182749280000000
  0.7062236833333334  0.6500000000000000  0.2182749280000000
  0.0395570166666667  0.8500000000000001  0.2182749280000000
  0.3728903500000000  0.8500000000000001  0.2182749280000000
  0.7062236833333334  0.8500000000000001  0.2182749280000000
  0.0395570166666667  0.0500000000000000  0.4182749280000000
  0.3728903500000000  0.0500000000000000  0.4182749280000000
  0.7062236833333334  0.0500000000000000  0.4182749280000000
  0.0395570166666667  0.2500000000000000  0.4182749280000000
  0.3728903500000000  0.2500000000000000  0.4182749280000000
  0.7062236833333334  0.2500000000000000  0.4182749280000000
  0.0395570166666667  0.4500000000000000  0.4182749280000000
  0.3728903500000000  0.4500000000000000  0.4182749280000000
  0.7062236833333334  0.4500000000000000  0.4182749280000000
  0.0395570166666667  0.6500000000000000  0.4182749280000000
  0.3728903500000000  0.6500000000000000  0.4182749280000000
  0.7062236833333334  0.6500000000000000  0.4182749280000000
  0.0395570166666667  0.8500000000000001  0.4182749280000000
  0.3728903500000000  0.8500000000000001  0.4182749280000000
  0.7062236833333334  0.8500000000000001  0.4182749280000000
  0.0395570166666667  0.0500000000000000  0.6182749280000001
  0.3728903500000000  0.0500000000000000  0.6182749280000001
  0.7062236833333334  0.0500000000000000  0.6182749280000001
  0.0395570166666667  0.2500000000000000  0.6182749280000001
  0.3728903500000000  0.2500000000000000  0.6182749280000001
  0.7062236833333334  0.2500000000000000  0.6182749280000001
  0.0395570166666667  0.4500000000000000  0.6182749280000001
  0.3728903500000000  0.4500000000000000  0.6182749280000001
  0.7062236833333334  0.4500000000000000  0.6182749280000001
  0.0395570166666667  0.6500000000000000  0.6182749280000001
  0.3728903500000000  0.6500000000000000  0.6182749280000001
  0.7062236833333334  0.6500000000000000  0.6182749280000001
  0.0395570166666667  0.8500000000000001  0.6182749280000001
  0.3728903500000000  0.8500000000000001  0.6182749280000001
  0.7062236833333334  0.8500000000000001  0.6182749280000001
  0.0395570166666667  0.0500000000000000  0.8182749280000000
  0.3728903500000000  0.0500000000000000  0.8182749280000000
  0.7062236833333334  0.0500000000000000  0.8182749280000000
  0.0395570166666667  0.2500000000000000  0.8182749280000000
  0.3728903500000000  0.2500000000000000  0.8182749280000000
  0.7062236833333334  0.2500000000000000  0.8182749280000000
  0.0395570166666667  0.4500000000000000  0.8182749280000000
  0.3728903500000000  0.4500000000000000  0.8182749280000000
  0.7062236833333334  0.4500000000000000  0.8182749280000000
  0.0395570166666667  0.6500000000000000  0.8182749280000000
  0.3728903500000000  0.6500000000000000  0.8182749280000000
  0.7062236833333334  0.6500000000000000  0.8182749280000000
  0.0395570166666667  0.8500000000000001  0.8182749280000000
  0.3728903500000000  0.8500000000000001  0.8182749280000000
  0.7062236833333334  0.8500000000000001  0.8182749280000000
