600
Lattice="34.548424260000004 0.0 0.0 0.0 20.870445700000005 0.0 0.0 0.0 21.8055194" Properties=species:S:1:pos:R:3:forces:R:3 mlfcs_configuration_id=0 mlfcs_sampling_method=gaussian pbc="T T T"
Se       4.12008618       1.03356280       0.11375472      -0.06443756       0.02879175      -0.00662091
Se      15.64258608       1.02445229       0.09322841      -0.13515225       0.13178103       0.07370633
Se      27.15060026       1.04080022       0.10608220      -0.00651061       0.01217911       0.00977096
Se       4.10850857       5.22684576       0.11402813       0.03497174      -0.02607479      -0.03260778
Se      15.63384074       5.22932419       0.11092530       0.01205334      -0.08293306       0.00706165
Se      27.14072893       5.22173929       0.09666138      -0.01944639      -0.03104247       0.02391827
Se       4.12582352       9.39164166       0.10440158      -0.07386865       0.01564661       0.03716798
Se      15.62637114       9.40436633       0.10470491       0.03938217      -0.07507028       0.02806103
Se      27.14503858       9.38861959       0.11157330      -0.02450001      -0.01050652      -0.02087594
Se       4.12069345      13.57035739       0.11055842       0.00431993       0.00812188       0.00354501
Se      15.65459691      13.56216591       0.10112778      -0.06935859       0.01319371       0.02055492
Se      27.14118413      13.57238986       0.11753993       0.03865583      -0.04761424      -0.09226734
Se       4.11589954      17.73191764       0.09800540       0.00467351       0.04586975       0.03069272
Se      15.63968636      17.74775174       0.11168175      -0.06203965      -0.01559288      -0.01174360
Se      27.14266676      17.74264081       0.10741707      -0.01401045      -0.01758674      -0.04053709
Se       4.11922590       1.05267693       4.46959004       0.02186106      -0.04572726      -0.04778740
Se      15.63996957       1.04463843       4.47024528       0.00598790       0.00482347       0.04234751
Se      27.15563474       1.02939108       4.46415738      -0.09502906       0.02984229       0.02098963
Se       4.11233529       5.21166300       4.46460266       0.04307998       0.06741957       0.02312647
Se      15.64812985       5.20939347       4.47703687      -0.06924910      -0.00720488      -0.05798897
Se      27.13249316       5.21470293       4.46898162       0.12505301      -0.00193362       0.00526143
Se       4.12290124       9.39925319       4.47528756      -0.04172996      -0.03257471       0.00786047
Se      15.62969318       9.38751740       4.47593385       0.02394972      -0.00355443      -0.03434153
Se      27.14740881       9.37938406       4.45602122      -0.01792536       0.00128102       0.00922678
Se       4.10784449      13.57120167       4.46877834       0.08397713      -0.02858546       0.01629142
Se      15.64008529      13.56195753       4.46893948      -0.06229019       0.02103306       0.00942049
Se      27.15557776      13.56313660       4.47192184      -0.05076754       0.00512144      -0.00031698
Se       4.11041975      17.73668866       4.46353671       0.04869056       0.02848393       0.00214125
Se      15.62122204      17.74518893       4.46266006       0.05804442      -0.03634812       0.07175209
Se      27.14944679      17.74512667       4.47181940       0.00903580      -0.03038467      -0.04634787
Se       4.12369286       1.04297779       8.82422498      -0.06302578      -0.00943515       0.05752908
Se      15.63238325       1.02708930       8.81398684       0.00916489       0.06437682       0.05313441
Se      27.13609486       1.03399017       8.83245571      -0.00568399       0.00468010      -0.05560933
Se       4.10798422       5.21427016       8.84145025       0.03674257      -0.03147813      -0.03407047
Se      15.62961779       5.22542694       8.81912179       0.02218222      -0.03756315       0.01550916
Se      27.14726748       5.20855156       8.82506764      -0.05082253       0.01110931       0.02553210
Se       4.12544209       9.37486772       8.83280220       0.00489569       0.05406927      -0.00586278
Se      15.63555779       9.38619942       8.81399739      -0.01819856       0.03357281       0.07905810
Se      27.15004315       9.38684599       8.83078473       0.02501512       0.05127258      -0.03805951
Se       4.11725753      13.58224785       8.82606441      -0.04315895      -0.04630712       0.01596275
Se      15.62294546      13.56802282       8.83065793       0.06288867       0.00196945       0.01536434
Se      27.16291373      13.57458117       8.83202668      -0.11075196      -0.04540640      -0.02483963
Se       4.13167204      17.72843157       8.82206045      -0.08989614       0.03845459       0.07154716
Se      15.62391467      17.73642110       8.81469111       0.05794486       0.03299469       0.04233975
Se      27.15567336      17.73809697       8.81374990      -0.01431790       0.00904504       0.01715341
Se       4.10688322       1.04709778      13.19794311       0.04620775      -0.04075010      -0.05807373
Se      15.65314774       1.07310127      13.19370594      -0.09796182      -0.11924842      -0.02692932
Se      27.13942647       1.02264218      13.19223896       0.02702115       0.10159948       0.00655197
Se       4.10890960       5.21389821      13.18344088      -0.00465918      -0.01592593      -0.02816974
Se      15.63177252       5.22871158      13.19113233      -0.01620079      -0.02005644      -0.00892987
Se      27.14773550       5.20769524      13.17281502       0.00744470       0.04599245       0.06366315
Se       4.11217593       9.39160310      13.20724115       0.02612811       0.03817842      -0.07108010
Se      15.63448318       9.40196832      13.18456889       0.00069945      -0.02011520       0.01531335
Se      27.13747242       9.38248975      13.18230959       0.03456409       0.03597357      -0.02504091
Se       4.13832371      13.55801619      13.19794674      -0.09869784       0.01070020      -0.01949245
Se      15.62415116      13.57554579      13.19341136       0.03387239      -0.00432738      -0.03884638
Se      27.14775547      13.56582244      13.18301397      -0.03407878      -0.02212853       0.05175606
Se       4.12149974      17.73576937      13.17730579      -0.01967506       0.01342448       0.07211547
Se      15.62040106      17.74204508      13.20535276       0.10452385      -0.03448010      -0.06935436
Se      27.15092177      17.73913282      13.19242011      -0.02791231      -0.00487152      -0.03342811
Se       4.13009903       1.04615647      17.54655646      -0.04473608      -0.03197484       0.03045752
Se      15.64424332       1.04825021      17.56602329      -0.08967599      -0.01429247      -0.07889668
Se      27.15115420       1.03171795      17.53698414      -0.06604224       0.05943981       0.04923306
Se       4.13354829       5.23528844      17.54887054      -0.10242397      -0.05773958       0.01501050
Se      15.62934856       5.23266622      17.53959527       0.03824647      -0.04295046       0.04486942
Se      27.14037458       5.22448505      17.54671968       0.03427740      -0.05350417       0.05823279
Se       4.11698779       9.39050649      17.55404147       0.04856151       0.01779397       0.04815159
Se      15.64725525       9.39304677      17.55710512      -0.11141924      -0.02854756      -0.00685741
Se      27.12882013       9.39165374      17.54223342       0.17498623       0.02305247       0.02123150
Se       4.10485088      13.55744854      17.54732449      -0.03584714       0.06429635       0.00515268
Se      15.64233946      13.55296613      17.55097204      -0.01482663       0.05108552      -0.01357515
Se      27.14448016      13.56295333      17.56069331       0.02605048      -0.00432904      -0.05213293
Se       4.12242017      17.75369318      17.54912067      -0.03483510      -0.02342808       0.03074697
Se      15.62622101      17.73808061      17.55309070      -0.03146580       0.01467923      -0.06060616
Se      27.15108759      17.72947532      17.55157063      -0.01392148       0.06204362       0.00870095
Se       7.40220746       3.15618195       4.27440559      -0.02401744      -0.05961959      -0.10776972
Se      18.90753417       3.12813338       4.24100273       0.07015441      -0.01407917       0.06170444
Se      30.42630095       3.13416326       4.26769568       0.01649163      -0.00060675      -0.07944650
Se       7.39263434       7.29855489       4.23416426       0.01911248       0.03165787       0.05260405
Se      18.91443994       7.29447221       4.25034275      -0.05338970       0.03949390      -0.00687152
Se      30.42343941       7.30415373       4.23805986       0.05855890       0.01521910       0.06597428
Se       7.38525473      11.50047796       4.24276292       0.10266175      -0.09454140       0.04273210
Se      18.90509874      11.49755463       4.28468782       0.07987149      -0.09529794      -0.10218958
Se      30.42049235      11.47550300       4.25905270       0.06581333       0.02359045       0.00558236
Se       7.41721216      15.64340606       4.25318437      -0.08719239       0.09547157       0.02204821
Se      18.92383998      15.65762229       4.25187559       0.00310456       0.01674547      -0.00088015
Se      30.43086979      15.63952567       4.25325541      -0.00271210       0.05264029       0.00564084
Se       7.39726130      19.82968547       4.25008388       0.05187224      -0.05602213      -0.01334652
Se      18.92078198      19.83749093       4.25719144      -0.05410541      -0.09873098      -0.08276383
Se      30.43572558      19.82789532       4.25563799      -0.02466497      -0.01347715      -0.02158063
Se       7.39270960       3.13417215       8.61576816       0.08700213      -0.01347687       0.00082371
Se      18.93699828       3.14674076       8.62059949      -0.07663648      -0.06140530       0.00304047
Se      30.42457745       3.11988310       8.62865246       0.03808030       0.04978870      -0.04692623
Se       7.40255267       7.30989779       8.59929517      -0.04410585      -0.01290166       0.05810928
Se      18.92534098       7.30964055       8.60563672      -0.02616541      -0.02540908       0.01422097
Se      30.42749277       7.30773352       8.61726570      -0.00458729      -0.01198003      -0.02556582
Se       7.39700347      11.47815061       8.61422125       0.04864500       0.03033553      -0.00425907
Se      18.91759222      11.49390041       8.59107444       0.06603637      -0.05047325       0.09062178
Se      30.42983952      11.48095062       8.61970097       0.01458398      -0.03344139      -0.02664181
Se       7.39620603      15.63570741       8.62002098       0.03309559       0.08443425      -0.00352639
Se      18.93334010      15.63793602       8.62537931      -0.10907911       0.10246749      -0.00530333
Se      30.42892277      15.65266139       8.60621204       0.03993924      -0.02061061       0.04801616
Se       7.39658062      19.84036422       8.62256758      -0.01963277      -0.04674934       0.00018869
Se      18.93338972      19.83913789       8.62113189      -0.07189619      -0.04927816      -0.00990855
Se      30.44964736      19.83175370       8.62502091      -0.17932494       0.00209090      -0.03691741
Se       7.39695947       3.13167267      12.97087067      -0.01335935       0.01959851       0.00207026
Se      18.92596244       3.11922418      12.98566841       0.00075690       0.07297505      -0.05378996
Se      30.43030151       3.14271968      12.98535360       0.06116686      -0.04986800      -0.03091221
Se       7.41813164       7.31240410      12.96212450      -0.10533153      -0.05277950       0.08087564
Se      18.91539707       7.29337628      12.97266211       0.00159889       0.03991236       0.02038917
Se      30.44732030       7.31147169      12.97085560      -0.08286852      -0.02156011       0.04883277
Se       7.38978801      11.47951331      12.96567931       0.11772451      -0.01578811       0.08484307
Se      18.90935520      11.48230559      12.98939803       0.02808081      -0.02663066      -0.04980509
Se      30.43829563      11.45627260      12.98088857       0.00939531       0.09357442      -0.00872053
Se       7.40064552      15.65741353      12.99400700      -0.04249045      -0.01669004      -0.10701182
Se      18.89543422      15.64736360      12.98375397       0.08981093       0.03384854      -0.00632843
Se      30.41639208      15.66803412      12.98152847       0.01659372      -0.07278230      -0.01516743
Se       7.40839102      19.82165433      12.98598254       0.01869039       0.03673657      -0.03923548
Se      18.92675132      19.82969255      12.98018892      -0.00381845      -0.02850828      -0.00922166
Se      30.43491145      19.81873032      12.97636962       0.00882441       0.03066207       0.02842769
Se       7.39839995       3.13484115      17.34894703      -0.01249985      -0.02992939      -0.04041121
Se      18.90548124       3.12975712      17.35376334       0.06705136       0.01406384      -0.07572585
Se      30.42477214       3.12278471      17.34097185       0.02973934       0.03109430       0.02500578
Se       7.40836903       7.30521061      17.35223839      -0.06224114       0.00556272      -0.04028702
Se      18.92463454       7.31351455      17.34448995      -0.06165205      -0.02147953      -0.03265600
Se      30.45548455       7.30304473      17.31891356      -0.14664468       0.01237046       0.09546119
Se       7.41596772      11.47460850      17.34002759      -0.06569351       0.03268550       0.00521290
Se      18.92916211      11.46316290      17.32643232      -0.12557713       0.03833366       0.02742040
Se      30.41619524      11.47124413      17.34334515       0.06444951       0.04886408      -0.04453770
Se       7.40516706      15.65603737      17.32482113      -0.00951659      -0.00278142       0.05361502
Se      18.89296557      15.65381817      17.33423103       0.11196843       0.02218196      -0.00167237
Se      30.43680188      15.66029417      17.34033120      -0.04260391      -0.05057950      -0.01417487
Se       7.40752651      19.82965589      17.34424943      -0.12352626      -0.02047637      -0.00555133
Se      18.90901987      19.82556766      17.34091655       0.03427396      -0.01063296      -0.02820584
Se      30.44041330      19.82342636      17.34416046      -0.04848430       0.00507069      -0.01290519
Se       7.39726679       3.12983179      21.70834786       0.03005380       0.00290990      -0.04389664
Se      18.89613600       3.11804249      21.68523081       0.05710570       0.04209628       0.08116875
Se      30.40887186       3.12422457      21.70754701       0.12743804       0.03002493      -0.01219249
Se       7.39707634       7.30707425      21.71094484       0.07230736      -0.05429565      -0.04775873
Se      18.92934346       7.30440497      21.71358853      -0.05531626       0.00237949      -0.02444536
Se      30.43312929       7.29672237      21.69410866      -0.00834689       0.04787751       0.02612764
Se       7.38511981      11.47030415      21.69647250       0.09741669       0.02188551      -0.00726200
Se      18.92410245      11.49639319      21.68623085      -0.05487746      -0.05287372       0.06728809
Se      30.43613629      11.46878005      21.70479964      -0.06085414       0.06736293      -0.04854219
Se       7.39861431      15.63496557      21.70933564       0.03482073       0.09190182      -0.04026153
Se      18.91001659      15.64793563      21.68935514       0.01445134       0.01032031       0.05467244
Se      30.42566519      15.65755354      21.69816022      -0.00283492      -0.00468047       0.01502802
Se       7.40321180      19.83098299      21.71325928      -0.06002321      -0.02805828      -0.01989902
Se      18.91263874      19.81259519      21.71072489      -0.01835200       0.05182383      -0.02496974
Se      30.42889314      19.83850970      21.70388644       0.02956239      -0.05209969      -0.03173944
Se       1.64054309       3.13449497       2.30631227      -0.01108672      -0.01092386      -0.08406591
Se      13.17876569       3.13170102       2.28840405      -0.10001059       0.00039396      -0.00884955
Se      24.68489971       3.12255060       2.29013285      -0.06642330       0.01215791      -0.01235554
Se       1.64159584       7.30823543       2.27846846      -0.01347060      -0.03505478       0.01930287
Se      13.14210021       7.28436652       2.27562831       0.07199075       0.06263942       0.06282401
Se      24.66955056       7.30216444       2.30617446       0.04825413      -0.02581614      -0.10524719
Se       1.65291440      11.46956458       2.29027923      -0.08635169       0.03404119       0.00774100
Se      13.15392511      11.47634185       2.28865540       0.02330222       0.02684815       0.02106756
Se      24.68032902      11.47579291       2.29744066      -0.02101707       0.02330224      -0.02374297
Se       1.63043509      15.65333802       2.31277888       0.05332900      -0.01247727      -0.11840199
Se      13.16022669      15.66760678       2.28771735       0.00259051      -0.07817994       0.04181491
Se      24.67994508      15.65270680       2.28509807      -0.12272458      -0.00939378       0.00521128
Se       1.63405965      19.83166678       2.27828678       0.02534296      -0.01755666       0.02510946
Se      13.16465174      19.83821664       2.29046746      -0.07419472      -0.01025621       0.02735250
Se      24.67127482      19.83190343       2.28371542       0.06095136      -0.01517590      -0.02419499
Se       1.65120994       3.11269315       6.64454995      -0.08818932       0.08226354       0.02651953
Se      13.13808777       3.11605660       6.66154465       0.05480479       0.06946922      -0.02011931
Se      24.68308916       3.12381241       6.63288099      -0.05489551      -0.01204148       0.11244549
Se       1.61220918       7.29966140       6.67211018       0.14420497       0.00616011      -0.11879095
Se      13.16234473       7.29950063       6.65255683      -0.05712280      -0.01653409       0.00544043
Se      24.65852773       7.30212312       6.64890080       0.03014174      -0.00802942       0.00924091
Se       1.64099346      11.48709355       6.65135248       0.02872119      -0.05350052      -0.02630322
Se      13.16467915      11.47230177       6.65688418      -0.01600666       0.01615907      -0.07741310
Se      24.69042668      11.46948400       6.63902907      -0.00872157       0.06586101       0.00851023
Se       1.65521231      15.65136119       6.66194424      -0.10011092      -0.00925709      -0.04090356
Se      13.15357053      15.66782509       6.64922089      -0.02175209      -0.01467758      -0.05144455
Se      24.67671960      15.66892181       6.64428832      -0.01208117      -0.09612858      -0.01279602
Se       1.63244325      19.82287813       6.65242937       0.03790984      -0.00553948       0.00567015
Se      13.14233830      19.83373848       6.64251831       0.08898247      -0.01468428       0.04088190
Se      24.68561544      19.80342117       6.64004037      -0.07036695       0.16492835       0.04147562
Se       1.62498979       3.12274492      11.01148657       0.03994744      -0.00350253       0.01542022
Se      13.15620362       3.12847344      11.00741806      -0.02723953      -0.01029395      -0.00357524
Se      24.67617119       3.12092185      11.01607840       0.01443364       0.02249789      -0.03203031
Se       1.64848113       7.30894673      11.01457524      -0.06512521      -0.04287774      -0.00446245
Se      13.16096007       7.32544708      11.00813897      -0.02429661      -0.07862834      -0.01158742
Se      24.67106648       7.29756108      10.99868728      -0.00246832       0.00407613      -0.01455293
Se       1.62940975      11.47029752      11.00830310       0.06976166       0.04712810       0.00234872
Se      13.16133884      11.47969691      11.00135455      -0.01221441      -0.02261537       0.05763279
Se      24.68313916      11.48657962      11.00741342      -0.00269794      -0.01689133      -0.03266605
Se       1.63532531      15.65875891      11.01088964       0.07717038      -0.02251244      -0.03884483
Se      13.14351462      15.65259483      11.01163027       0.06854955       0.04496732      -0.00561253
Se      24.66514036      15.65517307      10.99446168       0.02677758      -0.03091329       0.02944465
Se       1.65521633      19.83984327      11.00648473      -0.00463095      -0.07345513      -0.04016113
Se      13.16163043      19.80326455      10.99744643      -0.02311994       0.12635729       0.07917647
Se      24.67119952      19.81664244      11.01615387       0.00224939       0.06614626      -0.02809569
Se       1.66182743       3.11924106      15.36173915      -0.06326572       0.06121215       0.00365159
Se      13.16035037       3.14711837      15.35789004      -0.03471301      -0.07337501       0.02576214
Se      24.67662767       3.14922020      15.35359620      -0.03596920      -0.10037581       0.07512242
Se       1.62904378       7.30086029      15.36490790       0.07134249       0.01600174       0.02291664
Se      13.16612190       7.30751295      15.35236417      -0.04226007       0.05540377       0.07333115
Se      24.67929141       7.29932096      15.38285826      -0.03266696       0.00294721      -0.09657211
Se       1.63557859      11.47281934      15.37552510       0.02641884       0.01765947       0.00252470
Se      13.16562515      11.48366648      15.35325781      -0.09796602      -0.03047807       0.04633160
Se      24.67951765      11.46884241      15.37246655      -0.02091267       0.07234902      -0.05968166
Se       1.62761713      15.65773785      15.36204780       0.06889531      -0.01687597       0.02053299
Se      13.14516954      15.66041283      15.37253023       0.06540146      -0.02312744       0.00770947
Se      24.66799754      15.66778642      15.36570726      -0.03341526      -0.09376890       0.04429697
Se       1.64217555      19.83005291      15.36391713      -0.04783162      -0.04060952       0.05588833
Se      13.16270725      19.82202925      15.36599740      -0.03371996       0.03407169       0.01129969
Se      24.68776374      19.81695791      15.34598598      -0.04640100       0.03729001       0.11977442
Se       1.65796384       3.15650049      19.72716497      -0.16097340      -0.06493744       0.04154110
Se      13.13862751       3.12790237      19.72835544       0.00407611      -0.02783669       0.04736969
Se      24.67223807       3.11987333      19.73701328       0.01810339       0.01453564      -0.06969604
Se       1.64709954       7.29015230      19.73820963      -0.02422605       0.05197387      -0.05304311
Se      13.17852274       7.30681595      19.72784442      -0.08947020       0.02106286       0.01602937
Se      24.67271728       7.31124892      19.71391095      -0.00903851      -0.04296378       0.05484029
Se       1.64349838      11.47528085      19.74969592      -0.07418519       0.03084805      -0.03861466
Se      13.15625416      11.49586437      19.72018026      -0.00024150      -0.05861065       0.00893109
Se      24.68000990      11.48237949      19.72252719       0.00995622       0.02758094       0.03551200
Se       1.64362843      15.66539982      19.72797975       0.00825963      -0.06540342      -0.00958616
Se      13.14107626      15.65309900      19.72219344       0.12073813      -0.00613788       0.03873605
Se      24.67071390      15.65245875      19.71416115       0.09250425      -0.00288972       0.05839339
Se       1.62569789      19.83218444      19.72599048       0.08397393      -0.00327991       0.03951236
Se      13.13234845      19.83521221      19.73394136       0.06811083      -0.00654999      -0.02997720
Se      24.66699856      19.81419547      19.73957575       0.00087951       0.06348702      -0.06068679
Se       9.87860323       1.06778866       2.07928709       0.00787964      -0.11237412      -0.00963038
Se      21.39512817       1.04229336       2.08325297       0.03083835       0.00864039       0.01272294
Se      32.91364342       1.05647989       2.06987198      -0.03886632      -0.03391679      -0.01180475
Se       9.87075565       5.21326075       2.08299322      -0.01275085       0.04771873      -0.05614830
Se      21.40623489       5.21346338       2.07083747      -0.04890654       0.00782487      -0.00702380
Se      32.91053334       5.21559417       2.08460574       0.01187624       0.01296125      -0.02834912
Se       9.85259195       9.38387387       2.06726104       0.16669875       0.02063212       0.04695467
Se      21.36804758       9.38250454       2.06593365       0.07292370       0.06580222       0.01323872
Se      32.90538152       9.40327058       2.07263460       0.01722090      -0.05168797       0.05042968
Se       9.86480159      13.56566052       2.08557694       0.08704241       0.01876644      -0.04808271
Se      21.38149156      13.55712431       2.08067070       0.05787153       0.02654627      -0.06850511
Se      32.90517720      13.57270491       2.07494874       0.06758125      -0.04379411      -0.01048503
Se       9.88212636      17.72996842       2.07496436      -0.05804942       0.02739390       0.00408543
Se      21.38914424      17.72816029       2.05945043       0.04661874       0.02909701       0.10279174
Se      32.91425005      17.73680968       2.06486240      -0.02654879      -0.01336332       0.02353216
Se       9.87414793       1.05524283       6.41338171      -0.00465446      -0.04159269       0.07610903
Se      21.37628476       1.03473378       6.45080088       0.09183148       0.03222391      -0.07449545
Se      32.91021843       1.05163581       6.42478748       0.00045136      -0.04635484       0.05727570
Se       9.86391436       5.22252992       6.43677183       0.04632083       0.01438638       0.01124977
Se      21.39673853       5.21617507       6.43897052       0.05874509      -0.02513618       0.00246599
Se      32.90897375       5.22582946       6.44425917       0.02054348      -0.01859714      -0.04496969
Se       9.85891100       9.36966824       6.44620654       0.06860581       0.11412393      -0.06625747
Se      21.40312839       9.38193469       6.41759073      -0.04960548       0.06193134       0.10334646
Se      32.90838291       9.40144930       6.45416503      -0.02951968      -0.00188524      -0.13419641
Se       9.88027270      13.56251289       6.42725778      -0.00068711       0.03409809       0.02996976
Se      21.39136566      13.56323741       6.42603841       0.00128819       0.03457894       0.04801065
Se      32.92788012      13.58408175       6.44754957      -0.13995077      -0.07375078      -0.05523762
Se       9.86590122      17.74886939       6.44258535      -0.03039922      -0.03633561      -0.06901697
Se      21.39567660      17.75281585       6.44254280      -0.01753024      -0.04814568      -0.02797714
Se      32.91479271      17.74668826       6.43959700      -0.03443176      -0.01585499      -0.03427948
Se       9.85727361       1.04479885      10.79173105       0.11944475      -0.00783601       0.03903553
Se      21.37845273       1.06078081      10.81458292       0.11080422      -0.07245693      -0.05660768
Se      32.92098477       1.04651478      10.81079922      -0.03969115       0.00555466      -0.02282009
Se       9.87523026       5.22007975      10.78635825       0.02924647      -0.00318302       0.02108521
Se      21.39522106       5.21865564      10.78426645      -0.01627790      -0.00313748       0.07679811
Se      32.90688059       5.21725449      10.81526858       0.00881340       0.03299296      -0.06873306
Se       9.88405186       9.39225538      10.79978084      -0.00076150       0.01323620       0.01176517
Se      21.39169327       9.39011178      10.78646870       0.03749128       0.00967843       0.05256684
Se      32.90588204       9.38467994      10.78478981      -0.01173176       0.05702279       0.01079612
Se       9.88022194      13.57014271      10.77942589      -0.02871781      -0.06234658       0.05226852
Se      21.39002430      13.57618708      10.80788520       0.01544986      -0.05876746      -0.02064721
Se      32.91765093      13.56661919      10.78884251      -0.04891308       0.00039398       0.02501787
Se       9.86427274      17.74376525      10.80108577      -0.02740834      -0.02921010      -0.04015994
Se      21.40412445      17.75131900      10.79597068      -0.03699315      -0.02632423       0.00973784
Se      32.89495050      17.73712814      10.79946528       0.04924654       0.02387713       0.00302549
Se       9.87308889       1.03818370      15.16092570       0.00005487       0.03953593      -0.03619838
Se      21.38621157       1.03768198      15.16151138       0.06080140       0.03157221       0.00210842
Se      32.90337264       1.04640369      15.16112889       0.04464591      -0.05271248      -0.00575385
Se       9.86371543       5.21323937      15.17277462       0.01457680       0.01242830      -0.10130016
Se      21.37963035       5.19688524      15.13977840       0.06926777       0.08374565       0.06288839
Se      32.90768366       5.21836095      15.15722074      -0.03893738      -0.00367838       0.01931823
Se       9.88725162       9.36541258      15.16235619       0.02059837       0.11443691      -0.03051834
Se      21.40686553       9.38086311      15.15459878      -0.07004107       0.06553896      -0.01654350
Se      32.89986364       9.38319746      15.15513423       0.05359455       0.03284946       0.05796483
Se       9.88938458      13.58460393      15.15503746      -0.07172017      -0.13455206      -0.03178558
Se      21.41030175      13.56658583      15.17593376      -0.08947652      -0.01225664      -0.04985354
Se      32.90645958      13.56754064      15.16205159       0.03866635      -0.05477710      -0.04627873
Se       9.90689826      17.74883206      15.15132420      -0.17793618      -0.04175938       0.00509253
Se      21.40094112      17.73670088      15.15349935      -0.07371837       0.01990058       0.06183079
Se      32.91647858      17.74063006      15.16118261       0.05581345      -0.03368394      -0.02177310
Se       9.87524958       1.04732847      19.52375039       0.00281626      -0.00025940       0.03058696
Se      21.37188147       1.05062837      19.50968053       0.10154057      -0.02431075       0.03083013
Se      32.89296957       1.04337853      19.52034054       0.03305239      -0.00405225      -0.02850420
Se       9.86817466       5.22636210      19.50607898       0.04480237      -0.03991147       0.09301777
Se      21.38718171       5.21220304      19.51903485       0.04039135       0.05623207      -0.00368786
Se      32.91018121       5.20797285      19.52674355       0.02482717      -0.00028971      -0.05314206
Se       9.87573975       9.37322146      19.49991481       0.05864660       0.06560061       0.09193749
Se      21.39112795       9.38993125      19.51846653       0.02143508      -0.02046111       0.01609797
Se      32.90711274       9.39439652      19.52897722      -0.04183406      -0.03849302      -0.05794209
Se       9.86399867      13.55451035      19.50856749       0.02561410       0.05730142       0.02521191
Se      21.39414031      13.57867954      19.51518733       0.03692977      -0.06195008      -0.02345642
Se      32.88237556      13.54919013      19.51117036       0.10106131       0.04650333       0.01236872
Se       9.86953243      17.73623532      19.51988654       0.04239601       0.02883958       0.03461382
Se      21.38813368      17.75081260      19.51274055      -0.01555757      -0.03796604       0.01266423
Se      32.89876938      17.74510796      19.50414431       0.01887774      -0.02748176       0.05805896
Sn       7.12901161       1.04498817       1.78097496      -0.02213763       0.02154933       0.03280914
Sn      18.65713887       1.03774057       1.80305236      -0.03420220       0.03306799      -0.07784986
Sn      30.15514322       1.03119248       1.78314858       0.00602671       0.07513929      -0.00122157
Sn       7.11435224       5.21053422       1.78641971       0.01859770       0.02306787      -0.00701030
Sn      18.64681193       5.21183010       1.79232343       0.01404815      -0.04856714      -0.03887341
Sn      30.16897261       5.23241480       1.78774351      -0.03118363      -0.06446401      -0.02891579
Sn       7.13874898       9.37333294       1.77927031      -0.14594740       0.06975020       0.02395624
Sn      18.63258606       9.39333318       1.77673489      -0.04400213       0.03721229      -0.01581643
Sn      30.15573595       9.41096267       1.78075218       0.01821884      -0.07895536       0.01063291
Sn       7.12925261      13.56390737       1.78320651      -0.05845844      -0.05139259       0.02027705
Sn      18.64131628      13.57071330       1.79410246      -0.05406169       0.00117598      -0.04842518
Sn      30.17387147      13.56932626       1.78834485      -0.08905790       0.00347989      -0.00619758
Sn       7.11360605      17.73944043       1.79185227       0.06542582      -0.02550692      -0.02225911
Sn      18.64991580      17.74243530       1.79131332      -0.04331352      -0.06460740      -0.05747905
Sn      30.16230520      17.75232226       1.78534297       0.00101650      -0.04076137      -0.00667914
Sn       7.12155771       1.04732105       6.11424732       0.00167331       0.00899093       0.09291605
Sn      18.64508497       1.00747851       6.12631863      -0.07885759       0.17905807       0.08907055
Sn      30.16191522       1.04873793       6.13192897      -0.02136955      -0.00036597       0.05362223
Sn       7.11799367       5.23175719       6.13871296      -0.01501133      -0.01162721       0.06455445
Sn      18.66368531       5.21803258       6.14763362      -0.07980377      -0.04081221       0.00014664
Sn      30.17356627       5.21936205       6.13352982      -0.07893579       0.02245245       0.04795918
Sn       7.12401742       9.39178481       6.12990584      -0.03840092       0.02902895      -0.01930186
Sn      18.63869779       9.38471900       6.15279684       0.06996776       0.02506895      -0.01755084
Sn      30.15774365       9.38931296       6.14249144      -0.03374569      -0.01607347      -0.01235365
Sn       7.12734591      13.57239820       6.13355614      -0.01255729      -0.02702119       0.04563307
Sn      18.63084023      13.57727685       6.13942989       0.03186759       0.00224485       0.05934957
Sn      30.14322911      13.57066819       6.14818696       0.13419035       0.00098197       0.00316483
Sn       7.10980754      17.74261402       6.15090909       0.02082486      -0.00557840      -0.02884326
Sn      18.64499998      17.74663902       6.12951057      -0.01268134      -0.05134557       0.06522438
Sn      30.16070793      17.73729300       6.13872536       0.01430911      -0.03325167       0.00805184
Sn       7.13382025       1.05875539      10.52260084      -0.07716203      -0.01546568      -0.06418899
Sn      18.65440419       1.04286530      10.50818434      -0.11120184       0.05693944       0.00176823
Sn      30.16506576       1.04517442      10.50596478       0.01459097      -0.00000080       0.05214903
Sn       7.13335222       5.21745895      10.49736427      -0.05232619       0.01572804      -0.02230230
Sn      18.63711138       5.22439089      10.50468707       0.03468796      -0.01467277      -0.00466719
Sn      30.16079963       5.22475257      10.50090873       0.00206404      -0.02171672       0.02541555
Sn       7.13267717       9.39592935      10.49230901      -0.00107747      -0.00674216       0.03501958
Sn      18.65567916       9.38713347      10.48810619      -0.05739684       0.05088124      -0.00556363
Sn      30.14694709       9.38193047      10.50517887       0.02116788       0.01408962       0.01778919
Sn       7.12237619      13.56286174      10.51085416       0.02097599      -0.04202728      -0.03004292
Sn      18.64465486      13.56939054      10.50875542      -0.00402134      -0.03604245      -0.01099600
Sn      30.16355888      13.54515053      10.50101276       0.01557334       0.07986181      -0.00940152
Sn       7.10331259      17.74067980      10.50461081       0.06732729       0.01588560      -0.05995936
Sn      18.65171143      17.75219555      10.50668489       0.00560243      -0.02368306       0.00100401
Sn      30.15239392      17.74517081      10.49937796      -0.04058147      -0.03796959       0.01955120
Sn       7.12510076       1.05382400      14.86018331      -0.00459484      -0.04780846       0.01340880
Sn      18.64931290       1.05073665      14.85621310      -0.06767461      -0.04010345       0.04003749
Sn      30.16713647       1.05094830      14.86678028      -0.04808851      -0.00933687      -0.01882462
Sn       7.11749146       5.20945972      14.86038439      -0.02342263       0.06385740      -0.01330460
Sn      18.64668206       5.20849553      14.87013614      -0.07215996       0.00997604      -0.02289306
Sn      30.14497998       5.21601110      14.86685750       0.05645340       0.02093032      -0.01822099
Sn       7.14956599       9.37836776      14.88048117      -0.04795395       0.04681498      -0.05548437
Sn      18.64275453       9.39625264      14.86694450       0.02620936      -0.04798274      -0.01243738
Sn      30.16184480       9.39060407      14.88030152      -0.03292459      -0.02819671      -0.03791487
Sn       7.12054998      13.57755241      14.85931735       0.02882916      -0.08228374       0.02385629
Sn      18.64065359      13.55551044      14.87031126       0.04702736       0.04258035       0.01220055
Sn      30.17184879      13.56545650      14.86379216      -0.08501786      -0.00578141      -0.02235484
Sn       7.11396852      17.73802627      14.84983308       0.13825480       0.04571790       0.08640793
Sn      18.63212733      17.74258706      14.87895115       0.09633704      -0.00727931      -0.04187688
Sn      30.18548964      17.73445335      14.88011402      -0.12762829       0.03815908      -0.00826459
Sn       7.12755222       1.04245016      19.23119084       0.00161917       0.02529429       0.00509472
Sn      18.64187528       1.04506660      19.22278157      -0.07786375      -0.00875658       0.04526830
Sn      30.14341643       1.02852639      19.23339735       0.00810159       0.05873779      -0.01900203
Sn       7.12234769       5.21209089      19.22694996      -0.02871117       0.02186029       0.03099624
Sn      18.64920543       5.21985542      19.22030435      -0.06489094      -0.00328713       0.05067731
Sn      30.16966046       5.23384364      19.23181047      -0.04263669      -0.06245227      -0.01715736
Sn       7.13485133       9.40456052      19.23816589      -0.02762664      -0.02109464      -0.00320099
Sn      18.64739710       9.39812439      19.23206151      -0.02794732      -0.02989138       0.02179719
Sn      30.14642415       9.39914815      19.21330676       0.04487684      -0.05733464       0.03710317
Sn       7.11716870      13.57926571      19.23526710       0.00397596      -0.03717493      -0.04788016
Sn      18.65613009      13.56351332      19.21534241      -0.07153897       0.00286310       0.02931077
Sn      30.15499316      13.56725037      19.22765479      -0.07405837       0.00095428      -0.01033895
Sn       7.13645150      17.73670650      19.23038524      -0.04340545      -0.01286517      -0.03179229
Sn      18.63136984      17.74482237      19.22689599       0.00209290      -0.00497637       0.00119217
Sn      30.14989940      17.73796091      19.22502314       0.00656355       0.01852070       0.00954332
Sn       4.38914795       3.14872062       2.57845351       0.01240732      -0.06719565      -0.00870851
Sn      15.90555196       3.11003270       2.57049590       0.09038051       0.06837779       0.01557279
Sn      27.42150161       3.12414868       2.59325505       0.06500582      -0.00183482      -0.02551109
Sn       4.39020012       7.31798079       2.58005502      -0.01475277      -0.01405624      -0.00727126
Sn      15.90836320       7.30420839       2.57947594      -0.05301354      -0.02744827       0.03178432
Sn      27.44132029       7.28190024       2.55942252      -0.11145139       0.06175585       0.05121232
Sn       4.38641779      11.47933077       2.58633902       0.10152827      -0.00796499      -0.01900554
Sn      15.91272179      11.47534303       2.58962841      -0.02178473      -0.00061224      -0.01281590
Sn      27.43443430      11.48102607       2.58906455      -0.00150271      -0.04590229      -0.01787446
Sn       4.39457595      15.64765980       2.58641614      -0.05552771       0.01084973      -0.02394225
Sn      15.90909705      15.65328803       2.59416751       0.01889902      -0.00919639      -0.06741409
Sn      27.39962362      15.63909779       2.56756727       0.12435979       0.05913908      -0.00214353
Sn       4.38821690      19.82481769       2.56436472      -0.02974754       0.03889853       0.06030824
Sn      15.89813934      19.81875535       2.60401222       0.09620476       0.02483971      -0.13083733
Sn      27.44214976      19.82324628       2.57580214      -0.11013577      -0.01780924       0.00380545
Sn       4.38035746       3.11192591       6.93937305       0.10554930       0.05855270      -0.00370851
Sn      15.89801240       3.13015871       6.92453980       0.00970652       0.00464870       0.03738346
Sn      27.41651260       3.13249348       6.94420395       0.09943503      -0.05394582       0.00579377
Sn       4.39602422       7.29189146       6.94908871      -0.13150843      -0.00008558      -0.00828341
Sn      15.89998881       7.31142493       6.94043547       0.07245691      -0.03674423      -0.04491790
Sn      27.41036847       7.30193437       6.94419549       0.01644591       0.01112873      -0.02661977
Sn       4.39797916      11.47777561       6.95585964      -0.02506050       0.01839852      -0.00305999
Sn      15.91806603      11.47661895       6.94804307      -0.03235275       0.00968056      -0.01992946
Sn      27.44347028      11.49879034       6.92826186      -0.04535808      -0.07104940       0.05015183
Sn       4.38258417      15.66812382       6.92995904       0.10994785      -0.06550508      -0.00050087
Sn      15.89476551      15.64841269       6.94474412       0.02740751       0.00477688      -0.02526468
Sn      27.42310838      15.64676900       6.93379973       0.00075185       0.04474101       0.01653956
Sn       4.38472613      19.81856867       6.96335818       0.01583908       0.02719786      -0.08769343
Sn      15.91096603      19.83623136       6.93565108      -0.04569619      -0.04327310       0.00430182
Sn      27.42227278      19.82022823       6.91402477       0.04550445       0.01305238       0.05894123
Sn       4.37806941       3.11290102      11.27914790      -0.00669580       0.05472424       0.07775493
Sn      15.89603733       3.14425677      11.30120137       0.05278471       0.00784704      -0.01953464
Sn      27.43703798       3.13511704      11.30947132      -0.02443374      -0.07359079      -0.02776998
Sn       4.38284053       7.31033586      11.30893288       0.07675186      -0.02478765       0.02025403
Sn      15.90222445       7.31069175      11.30730761       0.03622340       0.00279063      -0.02726507
Sn      27.41863682       7.29386867      11.28980445      -0.00702335       0.03782415       0.01016089
Sn       4.39271456      11.48245559      11.29372048      -0.04313950      -0.01804627       0.05591673
Sn      15.90825678      11.48489086      11.30782764       0.03045265       0.01395561      -0.01096367
Sn      27.43965114      11.49195530      11.29163282      -0.06004087      -0.06878385       0.03094283
Sn       4.40868536      15.64796487      11.31209446      -0.11738990      -0.04464182      -0.03085032
Sn      15.90867079      15.64915314      11.28356877      -0.05263056       0.01411445       0.06901171
Sn      27.42241670      15.63768080      11.31131873      -0.01539264       0.08710053      -0.03288884
Sn       4.40701743      19.81939466      11.30466544      -0.03290004       0.06774759       0.01835719
Sn      15.90073701      19.82107892      11.30939068       0.06137381       0.04304714       0.01302758
Sn      27.42374696      19.84476025      11.29682341      -0.00906588      -0.09100671       0.00706408
Sn       4.40184287       3.13198135      15.67070739       0.00252916       0.03427431      -0.02674105
Sn      15.90351935       3.13051162      15.66159463       0.02419860       0.00187107       0.01728881
Sn      27.41577177       3.13762803      15.66925210       0.06508553      -0.02121273      -0.02777685
Sn       4.39778505       7.32046601      15.67724306      -0.04721266      -0.06269004      -0.08323476
Sn      15.90424148       7.30882687      15.65651361       0.05211938       0.01027448      -0.00549268
Sn      27.42436590       7.29909886      15.67895032      -0.00591154       0.03276489      -0.09042922
Sn       4.39548648      11.47700520      15.67468580      -0.01162814       0.02191500      -0.05651054
Sn      15.88628477      11.45904447      15.67070800       0.11510300       0.04439741      -0.03801704
Sn      27.42473703      11.48168995      15.64948565      -0.00591954      -0.00419290       0.00516220
Sn       4.39161717      15.67330973      15.67099161      -0.06036213      -0.08080871       0.00604371
Sn      15.90968799      15.64888409      15.65880389      -0.03207702       0.00264261       0.04756877
Sn      27.40284036      15.65585104      15.67120445       0.09963759      -0.00556124      -0.04666221
Sn       4.37609331      19.82074960      15.65117497       0.07906971       0.05624891       0.00269980
Sn      15.89833741      19.82789859      15.64190559       0.03978945       0.00217831       0.09601206
Sn      27.43027505      19.83490232      15.66023859       0.05062418      -0.07603993      -0.04629463
Sn       4.36704242       3.12104303      20.03618251       0.19654337       0.04915397      -0.00784383
Sn      15.88021098       3.12753198      20.01205349       0.07864181      -0.00919996       0.02947237
Sn      27.43217805       3.12425607      20.02789303      -0.02907401       0.01625330       0.00206035
Sn       4.39750411       7.32345861      20.02182407      -0.00233843      -0.06643351       0.01167483
Sn      15.91175137       7.29024580      20.03575763       0.06381008       0.06289236      -0.03871432
Sn      27.41652725       7.29948881      20.02363102       0.00917909       0.02326473       0.00551824
Sn       4.37622066      11.48147319      20.03352816       0.10590463       0.01298686      -0.01870338
Sn      15.91092026      11.46329652      20.02261540      -0.02366475       0.06303731      -0.03023130
Sn      27.43155263      11.46040560      20.01310583      -0.05389107       0.06787700       0.07310668
Sn       4.40061494      15.65597559      20.02797321      -0.03619081      -0.01931724      -0.02943354
Sn      15.92658587      15.65796016      20.03043237      -0.12254556       0.01847323       0.00330729
Sn      27.45123980      15.65113659      20.01587467      -0.14122883       0.00438570       0.06466256
Sn       4.39612747      19.83175368      20.01858634      -0.06121617      -0.01712016       0.01173662
Sn      15.89766695      19.85046222      20.02712193      -0.04728901      -0.10912543      -0.05141918
Sn      27.41680949      19.83652307      20.02276204      -0.01056285      -0.05397177       0.01904043
Sn      10.14739140       3.13662994       3.95008250       0.04168270       0.00232352       0.10270928
Sn      21.66958790       3.15013676       3.96766310      -0.05646154      -0.05136564      -0.01292173
Sn      33.17844093       3.12593616       3.95889792       0.01467791       0.00492778       0.04042145
Sn      10.14738059       7.30131829       3.97216443      -0.01722852       0.01213098      -0.02187858
Sn      21.64872954       7.31371635       3.95920446       0.08060777      -0.02736753       0.04303768
Sn      33.18597253       7.29382647       3.97628763      -0.04035372       0.04779019      -0.06719475
Sn      10.16237656      11.48878140       3.94785377      -0.09412794      -0.04936256       0.02262688
Sn      21.67435284      11.48323404       3.94694861      -0.08417509      -0.05087039       0.07611055
Sn      33.18196008      11.48283084       3.96856207      -0.04238719      -0.00664112      -0.02208358
Sn      10.15169283      15.65618695       3.97773743       0.04453071      -0.01299693      -0.03433592
Sn      21.67832197      15.62460408       3.95982693      -0.01297439       0.09407573       0.00857375
Sn      33.18055654      15.63575365       3.96394315       0.00765568       0.06519926       0.01015768
Sn      10.16240779      19.81649809       3.96636533      -0.06392182       0.05232895      -0.02956001
Sn      21.65690340      19.82064465       3.97777526       0.10527249      -0.01676595      -0.08876815
Sn      33.17677747      19.83198590       3.94428914       0.07082701      -0.02369629       0.03207655
Sn      10.16854339       3.13703374       8.32228020      -0.12831362      -0.03010701      -0.04245072
Sn      21.67181710       3.11690902       8.33593051      -0.00735165       0.05390485      -0.00731162
Sn      33.17896320       3.12896652       8.31918864      -0.02197787      -0.00945939       0.01835622
Sn      10.14411370       7.31204306       8.32666427       0.03001129      -0.04506815       0.02210667
Sn      21.67257911       7.30500840       8.32923720       0.00937449       0.01865222      -0.03519078
Sn      33.17801456       7.32739367       8.30842590       0.03942019      -0.06425825       0.09828639
Sn      10.16252959      11.49286457       8.31558361      -0.05819777      -0.04897676      -0.00387151
Sn      21.68835437      11.48914039       8.33381659      -0.10867127      -0.04511152      -0.10215032
Sn      33.18248327      11.47701323       8.32201111       0.01393841       0.05444580       0.04054012
Sn      10.15382552      15.66728649       8.32591834      -0.02177075      -0.05591019       0.00112237
Sn      21.65694720      15.66151890       8.33331671       0.08226365      -0.04291918      -0.04592385
Sn      33.18874965      15.66072962       8.32139592      -0.05113624       0.01302117       0.03163251
Sn      10.14063032      19.81868184       8.30775057       0.00704696       0.09584527       0.03118757
Sn      21.66843112      19.82652928       8.31970532       0.06119796      -0.00793374       0.05139276
Sn      33.15264686      19.81489060       8.33531361       0.18623148       0.06448366      -0.02638071
Sn      10.14327395       3.13461313      12.67130223       0.04119186      -0.01917571       0.01371559
Sn      21.68044869       3.12956693      12.68810948      -0.02451257       0.05971723      -0.00609862
Sn      33.20546085       3.14617161      12.68214342      -0.08318497      -0.03029743       0.04082903
Sn      10.14398801       7.30184090      12.69030806       0.06956081       0.01363678      -0.03471681
Sn      21.66500939       7.30114391      12.69988089      -0.00991955      -0.01114056      -0.06159565
Sn      33.18106095       7.32809224      12.68611651       0.03489788      -0.04937966       0.02083014
Sn      10.16777340      11.48275869      12.69483869      -0.13021685      -0.00163456      -0.06340888
Sn      21.65881552      11.47064790      12.68980614      -0.00392891       0.01930420      -0.01700576
Sn      33.19208858      11.47958806      12.67234515      -0.02358478      -0.03701035      -0.00429451
Sn      10.13631763      15.63900327      12.66753286       0.08328448       0.05650289       0.03853218
Sn      21.66715649      15.66452507      12.68507492      -0.07920299       0.00735714       0.03438750
Sn      33.15959890      15.65136703      12.68358109       0.04629650       0.00714990      -0.01717602
Sn      10.17088020      19.81279239      12.68130230      -0.06475363       0.03250230       0.01206692
Sn      21.68312016      19.83186355      12.69084221      -0.03842055      -0.01244779       0.00712810
Sn      33.18334890      19.83066321      12.69298518      -0.01839845      -0.01282291      -0.02340061
Sn      10.14182535       3.13978780      17.03258293       0.04987892      -0.05165081       0.07183539
Sn      21.66934531       3.13279462      17.04015003      -0.04960502      -0.01785648       0.02154804
Sn      33.18197620       3.12478181      17.03559595      -0.02947428       0.01887421       0.00182251
Sn      10.14638406       7.29405646      17.04954093       0.04781357      -0.01711028       0.06168044
Sn      21.65456078       7.31221612      17.03449817       0.08807807      -0.04635827       0.01709855
Sn      33.17654010       7.29885032      17.05956443       0.11866147       0.02556442      -0.06370326
Sn      10.15322311      11.47706815      17.05130015       0.01987205       0.01693004      -0.02855405
Sn      21.64498971      11.47875416      17.06628810       0.16445531      -0.02387297      -0.03653191
Sn      33.18352652      11.47986462      17.05179424      -0.05370695      -0.06040488      -0.02603296
Sn      10.15887626      15.63329996      17.02948970      -0.00813353       0.10691508       0.03247686
Sn      21.66816455      15.64612587      17.05943321      -0.08399938       0.04893050      -0.03975023
Sn      33.17905131      15.63392932      17.03363282       0.04657519       0.06630920       0.06242847
Sn      10.12242345      19.82502252      17.04442912       0.13633353      -0.00962568       0.01187787
Sn      21.66181701      19.83815256      17.05829816      -0.02279589      -0.06635062      -0.02906943
Sn      33.18049917      19.80601683      17.05248578       0.04166027       0.07420377       0.01288104
Sn      10.15547381       3.13410113      21.41723164      -0.05717655       0.02787728      -0.06014543
Sn      21.65441335       3.15109477      21.39782256      -0.04846561      -0.08016846       0.02753714
Sn      33.18969528       3.11413373      21.39811419      -0.13240544       0.01215698       0.05191775
Sn      10.16508390       7.30248735      21.41581607      -0.07303239      -0.01063967      -0.05033786
Sn      21.66843119       7.30404677      21.42105534       0.02327308      -0.00067921      -0.04761100
Sn      33.17983646       7.28728897      21.39938444       0.01935668       0.05952974       0.05168845
Sn      10.15543213      11.48314058      21.39174626      -0.06813288      -0.04352924      -0.00335102
Sn      21.65881821      11.47336828      21.40376214       0.05139497       0.00896339      -0.01360219
Sn      33.16844392      11.47290178      21.40013074       0.07040282      -0.01432958       0.05693249
Sn      10.15763554      15.66136584      21.40595874      -0.02682262      -0.05229773      -0.02378053
Sn      21.66214123      15.65467387      21.39925109      -0.00749515       0.04098894       0.01370076
Sn      33.17073473      15.64387242      21.40106871       0.02287487       0.03651873      -0.01900974
Sn      10.13828547      19.82898437      21.41471400       0.06191876      -0.00691361      -0.03834953
Sn      21.65019065      19.82761506      21.40521748       0.03185370       0.02848046       0.01798883
Sn      33.18561814      19.82723438      21.39288085      -0.01862472      -0.02630958       0.01164353
Sn       1.35442009       1.04425688       0.40917384       0.05877452      -0.00079565       0.02337542
Sn      12.86104353       1.04741991       0.41078225       0.12076795      -0.01402297      -0.03798393
Sn      24.39779656       1.04946467       0.39185534      -0.01002947      -0.04064283       0.01253607
Sn       1.36585032       5.20184265       0.37544260       0.00070195       0.06032494       0.08788083
Sn      12.89261306       5.20820183       0.39433076      -0.03026776       0.01032156      -0.01516837
Sn      24.38546240       5.20395208       0.39714766       0.04906797       0.06181722       0.04081466
Sn       1.35974821       9.39592063       0.40341142       0.02943044      -0.05006857      -0.02466300
Sn      12.88639390       9.39452693       0.41466372      -0.04321610      -0.00256286      -0.04797996
Sn      24.38865088       9.39159157       0.41021293       0.04806300      -0.03155982       0.00669741
Sn       1.37968938      13.55201242       0.39576248      -0.03944163       0.07279745       0.03633272
Sn      12.89676661      13.57131085       0.40083866       0.02843326      -0.00932868      -0.02663941
Sn      24.39714997      13.56239205       0.40176822       0.00258556      -0.00287337      -0.02954850
Sn       1.36452024      17.73989342       0.39967202      -0.00094880      -0.03661045       0.01622670
Sn      12.87640469      17.74564050       0.42802848       0.06682368       0.01415328      -0.11187612
Sn      24.38155695      17.74355933       0.39128413       0.06637112       0.02396447       0.02319850
Sn       1.37281801       1.04442822       4.76760846      -0.01522521      -0.04158803      -0.04080398
Sn      12.89494047       1.04588685       4.77131044      -0.07995276       0.01799708      -0.03927025
Sn      24.37588384       1.05986716       4.76374054       0.10351909      -0.11488921      -0.04850896
Sn       1.37782241       5.20585302       4.75168222      -0.05055901       0.05061423       0.05111599
Sn      12.88464478       5.21788140       4.76282060       0.04684558      -0.03166555       0.00366287
Sn      24.41017197       5.20039958       4.76972811      -0.11708434       0.09401625      -0.07853426
Sn       1.36712680       9.39010310       4.74527876       0.03139654      -0.02906083       0.10166615
Sn      12.88821589       9.36799984       4.76647385      -0.03388292       0.08399716       0.00394745
Sn      24.38440576       9.39267550       4.75879823       0.06673835      -0.03823798      -0.02477614
Sn       1.37873936      13.56444351       4.75304853      -0.07390499       0.00337194       0.03125141
Sn      12.87811937      13.57895889       4.76535288       0.04729134      -0.03785102       0.05385518
Sn      24.39547052      13.56386560       4.74431814       0.04367363       0.01460286       0.08068727
Sn       1.37092872      17.72272104       4.76750788      -0.05084668       0.04393631      -0.02433333
Sn      12.88447162      17.76418872       4.74898856      -0.05395551      -0.07527075       0.03936402
Sn      24.39830020      17.75830208       4.77190381      -0.00329630      -0.06175489      -0.09428884
Sn       1.36008186       1.04620232       9.12111379       0.00968532      -0.04124996      -0.01119770
Sn      12.88600496       1.03697584       9.12020059      -0.00906603       0.00260152      -0.00624865
Sn      24.38334630       1.04531388       9.12559400       0.05296239      -0.04025745       0.04042360
Sn       1.36476979       5.20190127       9.13097911      -0.03755521       0.06643717      -0.03230507
Sn      12.88683065       5.21079163       9.11828779      -0.00387351       0.04606794       0.03392864
Sn      24.38432013       5.20779768       9.11571568       0.04969157       0.00391635       0.04682287
Sn       1.37932819       9.38574589       9.12749593      -0.03367796      -0.00074210      -0.05434774
Sn      12.87780224       9.39462040       9.11967984       0.01280598       0.01064852      -0.02885260
Sn      24.40805739       9.38679281       9.10536851       0.00075103       0.02315389       0.03728447
Sn       1.35322449      13.56091129       9.10860319       0.07161014       0.02937671       0.06680508
Sn      12.88728752      13.56157238       9.14483986      -0.07058124       0.03305400      -0.09335500
Sn      24.38194967      13.56826639       9.10981426       0.11215723       0.00811819       0.02595985
Sn       1.36210997      17.74173340       9.09784008       0.06286958       0.00792682       0.10716249
Sn      12.88555366      17.75934828       9.11655941      -0.04883071      -0.10775778      -0.04164994
Sn      24.40192490      17.75056842       9.11945426       0.02959879      -0.02695200      -0.01890781
Sn       1.36123438       1.02120528      13.48860758       0.00040203       0.07159152      -0.03401239
Sn      12.88205372       1.03383580      13.48346364       0.06086136       0.06273244       0.01785064
Sn      24.39349002       1.03867838      13.48826059       0.00079863       0.01191840      -0.04905094
Sn       1.35366016       5.22852493      13.46822081       0.06846704      -0.03768795       0.07057578
Sn      12.87655839       5.23728124      13.49347122       0.00918115      -0.04506187      -0.07365004
Sn      24.40030286       5.20864648      13.47690495      -0.00587831       0.09129200      -0.02046432
Sn       1.36777673       9.39251615      13.48128897      -0.00720793      -0.01220442       0.01058807
Sn      12.88287708       9.38999717      13.46777789       0.01110190      -0.00410594      -0.00558865
Sn      24.39416171       9.40128716      13.46851433       0.03135824      -0.05048304       0.04612324
Sn       1.36514843      13.55803252      13.48331118       0.08070271       0.02971404      -0.01283228
Sn      12.87929907      13.58100400      13.48726351      -0.00370115       0.00490267      -0.03290381
Sn      24.38620879      13.57294234      13.47445116       0.03825203      -0.05122105       0.02193779
Sn       1.36127402      17.74345739      13.47728020       0.00990606      -0.02746269      -0.03475935
Sn      12.89211396      17.73257410      13.47600821      -0.09707303       0.00028579      -0.00099067
Sn      24.39276311      17.73466281      13.49318959       0.05257978       0.02182139      -0.10875442
Sn       1.37333194       1.06106208      17.86597800       0.00123112      -0.03493516      -0.09159665
Sn      12.87287823       1.04466683      17.83153955       0.04913478      -0.04702794       0.00814575
Sn      24.39155076       1.03766182      17.83273001       0.04552498      -0.01082168       0.07251641
Sn       1.35652511       5.21660894      17.83113437       0.10937503       0.06139435      -0.03500834
Sn      12.89160667       5.20887425      17.87139724      -0.06708618       0.05620852      -0.10075652
Sn      24.39481298       5.21877196      17.83034814      -0.02410455       0.00448408       0.03713903
Sn       1.38410490       9.40333593      17.84627071      -0.08573195      -0.08071134       0.01427353
Sn      12.86971738       9.39424759      17.83208724       0.10236676       0.01047371       0.05505090
Sn      24.41395037       9.40023287      17.84425594      -0.16317329      -0.00299793      -0.04912152
Sn       1.34268022      13.55639590      17.85017917       0.09281149       0.05318240       0.01227256
Sn      12.89531424      13.57732176      17.82738142      -0.00060207      -0.00928602       0.03364853
Sn      24.40234234      13.57638521      17.82671820      -0.02071857      -0.05151879       0.03311123
Sn       1.36696494      17.74305763      17.84029391       0.00383041      -0.01436581       0.00221902
Sn      12.86466378      17.73706222      17.84002850       0.05921218       0.03483560       0.03987515
Sn      24.39784610      17.73468449      17.83887143       0.00502260       0.01500408       0.01783822
600
Lattice="34.548424260000004 0.0 0.0 0.0 20.870445700000005 0.0 0.0 0.0 21.8055194" Properties=species:S:1:pos:R:3:forces:R:3 mlfcs_configuration_id=1 mlfcs_sampling_method=gaussian pbc="T T T"
Se       4.11588172       1.04777101       0.10302964      -0.01402713      -0.00842623      -0.00586169
Se      15.62832371       1.04427001       0.08686474      -0.02887202      -0.01013461       0.10522674
Se      27.15333197       1.04334084       0.10647084      -0.00927900       0.03461057       0.00733876
Se       4.12588613       5.19790745       0.08633556      -0.05009569       0.10483778       0.07158311
Se      15.63515824       5.21736444       0.10777567      -0.03077889      -0.00462288      -0.02138556
Se      27.14394035       5.22407914       0.11540029       0.00356631      -0.01449235      -0.01904189
Se       4.12111861       9.38891646       0.08499701      -0.07272439       0.00667315       0.09032857
Se      15.64011256       9.40374203       0.11251949      -0.07454093      -0.03519929      -0.05361102
Se      27.13976520       9.39826269       0.11467920       0.05404743      -0.01841817      -0.05620593
Se       4.13186695      13.55685279       0.10380936      -0.08334975       0.03642635       0.02644380
Se      15.63989292      13.56618799       0.09490063      -0.08020674      -0.00062056       0.04204142
Se      27.15270779      13.57140050       0.10695353      -0.01143540       0.00341307      -0.03678699
Se       4.11847463      17.73711597       0.12085669      -0.07592231       0.00631437      -0.07981302
Se      15.62341328      17.73382982       0.10618376      -0.00993129       0.05290540       0.04743237
Se      27.15735116      17.72472930       0.09297094      -0.01969184       0.09742967       0.05846464
Se       4.09590150       1.04367342       4.45599473       0.10151454       0.00677230       0.05823329
Se      15.62857470       1.04996025       4.46076236      -0.03002006      -0.02701214       0.02849345
Se      27.15087444       1.04035309       4.47389893       0.00643354       0.03738406      -0.01617441
Se       4.12103006       5.21051627       4.46549127       0.00750177       0.03148019       0.01710350
Se      15.64285764       5.22136938       4.45320816      -0.06673422      -0.03464478       0.04207914
Se      27.15511780       5.20658950       4.48130291      -0.01018660       0.07235699      -0.04317117
Se       4.12651977       9.39442360       4.46875011      -0.06540196      -0.07382785      -0.03960223
Se      15.63032988       9.39830999       4.46347000       0.02634784      -0.03251368       0.00275906
Se      27.15091732       9.40024409       4.46155972       0.02876921      -0.04985886       0.06037593
Se       4.11011686      13.55367023       4.45653306       0.06143282       0.03734073       0.03337648
Se      15.61413625      13.57291217       4.48526693       0.04889344      -0.02020860      -0.07430442
Se      27.16281491      13.54935304       4.47442633      -0.06988759       0.07800868      -0.05489447
Se       4.13049985      17.73513493       4.46819226      -0.05776106      -0.00878519      -0.06411363
Se      15.61234127      17.74237039       4.45654219       0.11094799      -0.01190578       0.07536230
Se      27.15055797      17.72409100       4.47260637      -0.03279308       0.09118389      -0.02807099
Se       4.12652391       1.03551467       8.81691244       0.00681459       0.03144718       0.03370098
Se      15.61085997       1.04068233       8.82246572       0.15206779       0.03705648       0.03479956
Se      27.13305143       1.04787665       8.82378196       0.05704625      -0.00145466       0.03252125
Se       4.10552142       5.21188988       8.83899471       0.03111236       0.01259198      -0.05117673
Se      15.63844957       5.21613535       8.83447271      -0.03901751       0.01729706      -0.05048758
Se      27.13695250       5.21775931       8.82975489       0.02604290      -0.02475128       0.00810394
Se       4.11158042       9.39587933       8.82047733       0.06311471       0.00606249       0.04204960
Se      15.63751841       9.39704333       8.79911006       0.00539576      -0.05528290       0.15797607
Se      27.16046468       9.36104842       8.82212117      -0.06737564       0.13989207       0.07079525
Se       4.12653226      13.56244102       8.81361980      -0.07385608       0.06357081       0.07064987
Se      15.62148283      13.57588294       8.80906662       0.06676287      -0.04248028       0.13664746
Se      27.15985153      13.56506287       8.81635771      -0.06587157      -0.00929068       0.01897050
Se       4.11044763      17.72953078       8.83694392       0.07895149       0.03594630      -0.05787302
Se      15.63974448      17.72251142       8.82424574      -0.02091814       0.13176539       0.04546781
Se      27.13992977      17.75263813       8.81478067       0.05093542      -0.06504156       0.05495058
Se       4.13232107       1.04301352      13.17776620      -0.06772784      -0.03580443       0.06178195
Se      15.62564746       1.03533028      13.17663936       0.06589436       0.00662439       0.02841882
Se      27.14950989       1.03106731      13.16758188       0.00456036       0.04647121       0.06431366
Se       4.11248202       5.19940705      13.18186393       0.03528185       0.07291219       0.06333830
Se      15.62332917       5.20872345      13.20939517       0.05295919      -0.00228681      -0.11926070
Se      27.14912574       5.21988932      13.17162156       0.04848538       0.00886523       0.05411430
Se       4.10973915       9.39367777      13.17914025      -0.01495556       0.00027615       0.06183107
Se      15.64150083       9.37949778      13.18652188      -0.05401539       0.07210360      -0.00219321
Se      27.14270111       9.39316795      13.18298064       0.04683363      -0.00284735       0.01067711
Se       4.11356985      13.56325259      13.18204167       0.01842164       0.03004244       0.06199786
Se      15.63727114      13.56799777      13.18849940      -0.00877662      -0.03322876      -0.01918856
Se      27.14425704      13.57357933      13.18702720       0.05210554      -0.00876957       0.00321963
Se       4.11321181      17.74074993      13.20635141       0.08007107      -0.02956526      -0.05062310
Se      15.61901664      17.74740160      13.17045383       0.08247599      -0.03523905       0.08702736
Se      27.15073435      17.75545386      13.19427223       0.03049675      -0.05767317       0.00193414
Se       4.11798503       1.03774197      17.55079990      -0.00703662       0.00184222       0.03690629
Se      15.62989957       1.03548670      17.54759067       0.02982155       0.01270438       0.00943077
Se      27.15054543       1.03567430      17.54242661       0.00817183       0.04976619       0.08131241
Se       4.10267635       5.22134286      17.55594266       0.11623179       0.01937175      -0.01389441
Se      15.63473681       5.22708731      17.55136810      -0.05382610      -0.05059130       0.01461120
Se      27.15248173       5.22047398      17.54957402       0.01545012       0.01098779       0.00383889
Se       4.11097056       9.41366627      17.54596991       0.01402439      -0.08759796      -0.00646540
Se      15.62576143       9.39586485      17.55300797       0.04084077       0.02001687       0.00828776
Se      27.13451371       9.40275153      17.54954748       0.03578074      -0.04105068      -0.02809047
Se       4.10516947      13.57750173      17.55674618       0.07645288      -0.04902930      -0.02991866
Se      15.61977478      13.58338572      17.55707740       0.14451531      -0.09362841      -0.03334303
Se      27.14845966      13.58151608      17.55208240      -0.02918534      -0.04119362      -0.04501698
Se       4.11599795      17.73310003      17.55630793       0.03238055       0.02680241       0.00846167
Se      15.63718623      17.73984983      17.54258956      -0.03639622      -0.01358349       0.02956499
Se      27.14986092      17.73900504      17.53715468      -0.02612347       0.01261059       0.04644260
Se       7.38444683       3.13604257       4.22944196       0.06978324      -0.01307267       0.07603883
Se      18.91736047       3.12561021       4.26854331      -0.01984202       0.03753705      -0.05428075
Se      30.42651311       3.13698588       4.25149171       0.08982430      -0.07226553       0.01769687
Se       7.40030243       7.31184854       4.25083529      -0.02281966      -0.06590999       0.02495088
Se      18.92527192       7.29454320       4.25840677      -0.03717770       0.07875999       0.02746270
Se      30.44067419       7.31108055       4.27462529      -0.03082349      -0.00307798      -0.05929158
Se       7.39153056      11.46477782       4.24551749      -0.00861927       0.07893298       0.03717633
Se      18.92191079      11.48354855       4.25648341      -0.00218039      -0.02882076      -0.02289999
Se      30.42021822      11.48623799       4.24321380       0.08220802      -0.04218227       0.04406298
Se       7.41075444      15.68123284       4.25912536      -0.02961397      -0.11920171       0.01471901
Se      18.92113745      15.64772986       4.23735871      -0.06498214       0.04350813       0.06320952
Se      30.42542060      15.64172950       4.24099080       0.06321167       0.03534197       0.06032479
Se       7.41638855      19.82947622       4.25925772      -0.12311971      -0.01652818       0.00543020
Se      18.91221615      19.82501889       4.26510635      -0.04379350       0.00606884      -0.02623402
Se      30.43112442      19.83205454       4.25350080       0.01368624      -0.05874772      -0.01638347
Se       7.39574342       3.11632190       8.59678723       0.03875162       0.07945966       0.06994976
Se      18.91269075       3.13095600       8.60370342       0.03464496      -0.00911633       0.04745144
Se      30.43110304       3.13092856       8.59500464       0.03665200       0.00512319       0.09159580
Se       7.39001370       7.30855282       8.62043531       0.04879961      -0.05231599      -0.02059423
Se      18.90376962       7.30606466       8.62678880       0.07448851      -0.00096937      -0.05142491
Se      30.43921852       7.30352732       8.61188496      -0.02809353       0.02407007      -0.04290526
Se       7.39287150      11.48324751       8.61851576      -0.00753778      -0.00862994       0.00474493
Se      18.92160041      11.47988806       8.62475236      -0.08743776       0.00528587      -0.02289475
Se      30.43239371      11.48641620       8.62527295       0.04610295      -0.02821909      -0.03430664
Se       7.39111968      15.63457702       8.63199965      -0.00461259       0.06476323      -0.08103599
Se      18.91787296      15.63551360       8.60942653      -0.03695070       0.06588548       0.03292210
Se      30.43916653      15.64986169       8.61144411      -0.01625995       0.01149852       0.01385125
Se       7.41317377      19.81627473       8.60858319      -0.01298594       0.07996670      -0.01839020
Se      18.91742023      19.83065215       8.62152815      -0.03002339      -0.02397064       0.02223479
Se      30.44056017      19.82873338       8.62145856      -0.03281007      -0.01049498       0.00017033
Se       7.39657286       3.13101802      12.97874395       0.05258654      -0.01222603      -0.03539465
Se      18.91745735       3.13811644      12.98322006      -0.00531685      -0.01286069       0.00548207
Se      30.43188996       3.12229978      12.97834532      -0.03124374       0.07503562       0.03275315
Se       7.39888477       7.30641199      12.99973386       0.00038765      -0.02565981      -0.07472057
Se      18.91006864       7.30870307      12.98835322      -0.02421252      -0.01787934      -0.04757514
Se      30.43242781       7.32785863      12.97388821      -0.00832293      -0.10976398       0.02660707
Se       7.40240584      11.47058126      12.97415336      -0.05058235       0.05212750       0.06231294
Se      18.91779571      11.48703236      12.98085955      -0.05680191      -0.00585812       0.01041608
Se      30.44403894      11.47761966      12.97434692      -0.07833029      -0.02370741       0.00801703
Se       7.42620480      15.65660083      12.97047379      -0.14296729      -0.00794328      -0.02817004
Se      18.90836373      15.64323166      12.98703430       0.06095406      -0.00272704      -0.06199032
Se      30.42780402      15.65393208      12.97703352      -0.00496959       0.03471338      -0.02816564
Se       7.40647987      19.81828016      12.96691288      -0.00662451       0.02851029       0.04467708
Se      18.91754934      19.83275719      12.98099393      -0.04092189      -0.05203094      -0.02980572
Se      30.42335325      19.83352245      12.97022999       0.03061495      -0.02841931       0.02769264
Se       7.39394956       3.12095150      17.35178407       0.04402962       0.03270840      -0.04299747
Se      18.92164058       3.13644097      17.35124460      -0.02752721      -0.04734840      -0.07695831
Se      30.45957428       3.11329878      17.33138872      -0.14899445       0.09771976       0.03677455
Se       7.39300320       7.29597198      17.32799665      -0.00405958       0.01398552       0.04956884
Se      18.91230984       7.29231414      17.34212291       0.00392530       0.05911316      -0.00606551
Se      30.43196477       7.30929046      17.34384977       0.00306880       0.00760905      -0.00364045
Se       7.40519502      11.47483523      17.35998392       0.00580199       0.04255421      -0.09889454
Se      18.91765068      11.45994447      17.32874873      -0.01334451       0.11531157       0.04219267
Se      30.41404276      11.47874266      17.33755443       0.04520968       0.00933255       0.05210089
Se       7.39448069      15.67276772      17.34426231       0.00945409      -0.10211714      -0.01669409
Se      18.92256735      15.64334772      17.32878103       0.01110601       0.03801805       0.02024820
Se      30.43181584      15.65438853      17.32020937       0.01067196      -0.01102709       0.08749145
Se       7.39736188      19.82688832      17.33662099       0.00585093       0.05119511      -0.02019758
Se      18.90717246      19.82135225      17.33700389       0.06983404       0.00249179       0.00912184
Se      30.43235579      19.83279551      17.34958105      -0.00857154      -0.04084850      -0.04554920
Se       7.39622147       3.12582948      21.70425292       0.02611359      -0.00147684      -0.00144104
Se      18.92141482       3.12604903      21.70778030      -0.02280398      -0.00121329      -0.03645839
Se      30.44124364       3.14330790      21.71765957      -0.05613445      -0.05944908      -0.04193919
Se       7.39050079       7.30461916      21.69998914       0.00391936      -0.02402303      -0.01096117
Se      18.91432563       7.29798755      21.68502074       0.05499901       0.00501745       0.04788135
Se      30.43237458       7.29679662      21.70073630      -0.00206772       0.03018116      -0.02264547
Se       7.39122451      11.46757273      21.70221935       0.06996678       0.06355547      -0.00855852
Se      18.91681558      11.48436214      21.72173500       0.03019032      -0.04727225      -0.06061011
Se      30.43422068      11.48342013      21.68910075      -0.03417896      -0.04202598       0.02359099
Se       7.38629587      15.66848675      21.69064157       0.05276244      -0.03414864       0.03941908
Se      18.90486693      15.65226747      21.69897444       0.04630171      -0.04228657       0.01805633
Se      30.42242272      15.64960872      21.71217012       0.02750450       0.01498055      -0.07769093
Se       7.39110501      19.81281087      21.70930230       0.05125302       0.03228178      -0.00322611
Se      18.92022934      19.82054241      21.68405469      -0.01886740       0.02116038       0.07211911
Se      30.42400156      19.82620055      21.71153308      -0.00740887      -0.06388048      -0.05580837
Se       1.63072842       3.12954584       2.29337729       0.06044975       0.02339534      -0.03210269
Se      13.13342299       3.14072890       2.27480134       0.06692325      -0.06326466       0.06343427
Se      24.67669703       3.13285787       2.29747171       0.00405325       0.00247012      -0.03667383
Se       1.64660348       7.28070727       2.27877805      -0.02805866       0.10755792       0.00853558
Se      13.15861771       7.30253038       2.29140195       0.02337046       0.00375314      -0.06186809
Se      24.68127074       7.31056469       2.28448309       0.02404636      -0.06095621       0.01002582
Se       1.62263087      11.47401450       2.29078953       0.07120257       0.03298478      -0.03582676
Se      13.14633119      11.48488206       2.29570978       0.09306541      -0.03798938      -0.05833860
Se      24.67464575      11.44793152       2.27384496       0.01759040       0.16395089       0.04716527
Se       1.65995613      15.64719308       2.26678441      -0.09694926       0.02365838       0.05095643
Se      13.16958813      15.65279201       2.29767525      -0.09984755       0.02709495      -0.03386511
Se      24.67614667      15.65724405       2.29025594      -0.00430927      -0.04902450      -0.01285606
Se       1.64806912      19.84952190       2.29633591      -0.04965044      -0.09284083      -0.06804208
Se      13.14143227      19.83121421       2.29804065       0.06787259      -0.02068542      -0.04843336
Se      24.68540409      19.82248155       2.29827529      -0.06612676       0.03686554      -0.07561038
Se       1.65037166       3.15611621       6.64022971       0.00610923      -0.13769759       0.09939544
Se      13.15216165       3.12732985       6.64282750       0.00629701       0.07202635       0.03651838
Se      24.66447687       3.10276428       6.64338273       0.00924101       0.14261597       0.06459784
Se       1.64478782       7.29954796       6.66708354       0.05358147       0.02658138      -0.06326759
Se      13.15736942       7.31739047       6.65034393      -0.00847550      -0.07091705      -0.03615405
Se      24.68164115       7.30727259       6.66141757      -0.05509706      -0.02110071      -0.04902910
Se       1.64165363      11.48353052       6.65139305      -0.01353328       0.01535921       0.02065982
Se      13.15435280      11.48261914       6.67007359       0.05428072      -0.03688185      -0.07700028
Se      24.67067311      11.48276397       6.66030751      -0.00275789      -0.01303238      -0.06955441
Se       1.65249677      15.65277562       6.62389584       0.02975517      -0.01543447       0.08863301
Se      13.16240269      15.63046371       6.66242910       0.00016819       0.14859115      -0.03967803
Se      24.67507182      15.66265520       6.63870861      -0.06426171      -0.07559635       0.05179069
Se       1.62556916      19.82935514       6.64739369       0.02066522      -0.03931094       0.01340581
Se      13.15232025      19.82759421       6.67540408       0.03432447       0.01739028      -0.14858377
Se      24.68172233      19.83724258       6.65616909      -0.05584635      -0.06170339      -0.02793196
Se       1.65588886       3.12849032      10.98828599      -0.08545176       0.01327229       0.02657605
Se      13.15534980       3.13850839      10.99913560       0.02584320      -0.02041364       0.02368045
Se      24.67161342       3.12347334      11.02385390       0.03571247       0.05446623      -0.03669126
Se       1.64858881       7.31099558      11.01504962      -0.03975309      -0.04186464      -0.04787732
Se      13.15686317       7.30645574      10.99698176      -0.02047887      -0.00032894       0.04784199
Se      24.65151266       7.30598099      11.01207351       0.08395286      -0.00502331       0.00669659
Se       1.65318688      11.49428268      11.02453359      -0.06010393      -0.03341795      -0.04994985
Se      13.14725542      11.47504667      11.01363695       0.07366013       0.00850006       0.00153757
Se      24.69869613      11.49337031      11.02002758      -0.11747692      -0.06553689      -0.10458667
Se       1.63721636      15.64382646      11.01672268      -0.01189761       0.05781554      -0.02838501
Se      13.14622905      15.65027409      11.00768582       0.05314820       0.04590371       0.03066873
Se      24.68930620      15.64911148      10.98444111      -0.02726393       0.04351123       0.08588718
Se       1.64613869      19.81975738      11.00925991      -0.05522432       0.04397117      -0.04372591
Se      13.15636861      19.82401056      11.01673701      -0.01133917       0.04274268      -0.06059906
Se      24.65804843      19.82157745      11.01567398       0.04679819       0.01093806      -0.04146113
Se       1.63495339       3.11430297      15.37662304       0.07400342       0.03823057      -0.04060100
Se      13.16846661       3.12994108      15.35032903      -0.03860162      -0.00730248       0.08731277
Se      24.68043678       3.11379216      15.37302548       0.00029166       0.08520372      -0.02956535
Se       1.63221960       7.29288178      15.36551838       0.02937776       0.03739763       0.03075843
Se      13.15540268       7.29803809      15.37582452      -0.04839298       0.02207805      -0.03673325
Se      24.66891639       7.31428209      15.37274922       0.01446217      -0.07260607       0.00167929
Se       1.63411867      11.46990992      15.35346252       0.00482476       0.05630056       0.05842856
Se      13.16014299      11.47502344      15.34621553      -0.03604529       0.02341903       0.09770097
Se      24.66801993      11.46955898      15.38569426       0.00066179       0.04945979      -0.07591277
Se       1.62406645      15.63824495      15.38103718       0.05981812       0.08443799      -0.05371417
Se      13.17080329      15.64520863      15.36361663      -0.00516882       0.04684645       0.00126801
Se      24.67953943      15.62938746      15.35132555      -0.03547022       0.06568265       0.09353879
Se       1.63828690      19.84224650      15.36558018       0.06214860      -0.06624245       0.02503958
Se      13.15824503      19.83808549      15.39100633       0.00625096      -0.05627871      -0.10628015
Se      24.66760859      19.82657923      15.38815804       0.04812644      -0.02093641      -0.07678130
Se       1.62587225       3.14066685      19.72085821       0.08111293      -0.03774204       0.03155040
Se      13.15826038       3.12796485      19.72146125      -0.05069797       0.01729790       0.04951890
Se      24.66354606       3.13315518      19.74099676       0.08753667      -0.01362768      -0.03591638
Se       1.63979688       7.30518131      19.73675310       0.01658634       0.04626972      -0.02103218
Se      13.14751947       7.31187710      19.73923479       0.03179465      -0.01347598      -0.01180624
Se      24.69941334       7.30071914      19.72646055      -0.09867474      -0.00181042       0.02716140
Se       1.64878390      11.48676036      19.72569049      -0.01358979      -0.07603103       0.00063852
Se      13.15320403      11.48398063      19.72276552       0.02779759      -0.03446538       0.06129651
Se      24.66927174      11.47946524      19.74100075       0.03056810       0.03644270      -0.00023115
Se       1.63504825      15.63423461      19.71187539       0.02974143       0.11001445       0.09422146
Se      13.14464153      15.63952678      19.72949526       0.01404619       0.08420827      -0.01125166
Se      24.66148828      15.64563091      19.72330050       0.06670840      -0.00609364       0.07226858
Se       1.63668916      19.83997264      19.73766084       0.11551173      -0.05715484       0.01164476
Se      13.15739695      19.82213733      19.72670904      -0.02335924       0.01619129       0.04693194
Se      24.67665454      19.83258929      19.72196519      -0.01242945      -0.05374559       0.04045495
Se       9.87471430       1.02303027       2.07702604       0.02154764       0.07938195      -0.01747452
Se      21.39811241       1.04054578       2.09307417      -0.01246202      -0.00993105      -0.08887560
Se      32.89781995       1.04552087       2.07455066       0.05751984      -0.04368799      -0.00312320
Se       9.87334652       5.21629239       2.07597995      -0.00444151      -0.00259260       0.00699251
Se      21.39897050       5.23121297       2.07488640      -0.04420719      -0.06273197      -0.01694347
Se      32.91478549       5.21041794       2.08256846      -0.03012575       0.03309709      -0.05799266
Se       9.86672958       9.40243135       2.09701531       0.06810608      -0.06400856      -0.09906094
Se      21.38927007       9.36959931       2.06942817       0.04552464       0.10646929       0.01732824
Se      32.91895108       9.39705551       2.07739804      -0.08764733      -0.04034256      -0.02401067
Se       9.88443618      13.57045842       2.08708616      -0.06600562      -0.00530099      -0.02739400
Se      21.39968515      13.58083089       2.07849686      -0.06658666      -0.08635284      -0.04820392
Se      32.91568493      13.56254262       2.06889430      -0.03420522      -0.00287808       0.03880622
Se       9.89141717      17.74186507       2.08295771      -0.09336426      -0.02560512      -0.05998739
Se      21.39172831      17.73383787       2.07501873       0.03675123      -0.00369036      -0.03370576
Se      32.92099227      17.74525543       2.05779417      -0.07407194      -0.02082172       0.02408616
Se       9.87219705       1.06116940       6.43387481       0.04725405      -0.08709300       0.00948950
Se      21.37248613       1.06227696       6.44283671       0.08532350      -0.08507970      -0.01878059
Se      32.90593220       1.03963229       6.44683630      -0.00855122       0.04545974      -0.05502148
Se       9.86892966       5.22891817       6.44143474       0.05584003      -0.05887133      -0.01827029
Se      21.39293773       5.21889076       6.43426310       0.01316651       0.00526535       0.03719576
Se      32.91708873       5.20878218       6.41979353      -0.04400576       0.02767499       0.09109144
Se       9.88049389       9.39783713       6.44081520      -0.00596417      -0.03160387      -0.00357865
Se      21.39456820       9.38831934       6.44388761      -0.08224619       0.06848449       0.00356846
Se      32.90617675       9.38665361       6.43289387       0.03892769       0.05313701       0.05407405
Se       9.89455589      13.54826413       6.44101066      -0.13029412       0.06919068      -0.04629451
Se      21.37369981      13.56453155       6.43167651       0.18135215      -0.02097029      -0.00231145
Se      32.88578205      13.56950426       6.43221240       0.12970409      -0.03055710      -0.00316979
Se       9.85335743      17.74809871       6.45036285       0.07336760      -0.06056723      -0.00886520
Se      21.40539216      17.74329259       6.43647336      -0.06338740      -0.00559946       0.03612062
Se      32.91991390      17.75652686       6.44734847      -0.06211131      -0.08489400      -0.06581569
Se       9.86493412       1.04535992      10.80151183       0.08838848      -0.02462273      -0.01598736
Se      21.37239474       1.04804007      10.81984658       0.04285430       0.01569861      -0.08629786
Se      32.91303169       1.05808060      10.79894581      -0.00679947      -0.02401237      -0.03179199
Se       9.87361731       5.22124832      10.78895840      -0.02034673      -0.01155703       0.04700358
Se      21.38085316       5.23009865      10.81084009       0.06232182      -0.04936171      -0.04714586
Se      32.89672127       5.22711560      10.79624706       0.03531844      -0.04649483       0.03378959
Se       9.87774758       9.39612693      10.80706017      -0.01877417      -0.02261702      -0.04894890
Se      21.39131809       9.40562637      10.80021079      -0.02407943      -0.01987836      -0.01896026
Se      32.91287418       9.38319212      10.81870325      -0.02508631       0.00688485      -0.11582440
Se       9.87904774      13.57274386      10.78103481       0.00055423      -0.03927786       0.05689181
Se      21.38226389      13.57799272      10.79998557      -0.00639111      -0.06119423      -0.00284701
Se      32.88749454      13.57599679      10.79167884       0.05754461      -0.04176919      -0.05644607
Se       9.88846266      17.73882467      10.79916373      -0.00040397      -0.01924076      -0.06507021
Se      21.40228046      17.73072810      10.78718820       0.01447142       0.03951389       0.04090384
Se      32.90466735      17.74797475      10.78380789       0.03957491      -0.04612534       0.06551924
Se       9.85766915       1.05158368      15.15219076       0.07713773      -0.03821994       0.04208714
Se      21.38656865       1.02477836      15.15143075       0.05134652       0.05924438       0.02434611
Se      32.90655666       1.05265025      15.15050824       0.04007081      -0.05077474       0.01305709
Se       9.89092325       5.21059005      15.15138963      -0.09183499      -0.00327849       0.06413984
Se      21.40586449       5.21955021      15.15270030      -0.08561106      -0.02452402       0.02559830
Se      32.90508100       5.23096634      15.17288257      -0.01527621      -0.02223245      -0.01742603
Se       9.86618156       9.39110041      15.15912211       0.05056899       0.04312227       0.02761278
Se      21.38062851       9.39096790      15.15827377       0.04798815      -0.00106898       0.00344347
Se      32.91803443       9.40359900      15.15492845      -0.08456900      -0.03927206       0.00333062
Se       9.87220996      13.57225681      15.15236866      -0.02180746       0.00492633       0.03281333
Se      21.39637731      13.56473482      15.14852656      -0.06097953       0.02419831       0.01966513
Se      32.89706397      13.58008447      15.15665633       0.03841942      -0.06590184      -0.00213800
Se       9.89075303      17.73456666      15.16113260      -0.09121519       0.03130929      -0.00009475
Se      21.41441768      17.72912916      15.13924240      -0.09869323       0.03100318       0.08113338
Se      32.91949823      17.73143494      15.15801348      -0.08597407       0.06212938      -0.04957831
Se       9.86849031       1.04602809      19.50981906       0.04261815      -0.03754956       0.03176708
Se      21.38869151       1.04784462      19.50924133       0.05034198      -0.00883542       0.02243863
Se      32.89963149       1.03987264      19.50503627       0.03755101       0.00832575       0.07048765
Se       9.87012388       5.21862357      19.51532893       0.01044953       0.00420527       0.01017174
Se      21.38777715       5.21723659      19.51276699       0.03127017      -0.01947104       0.01864046
Se      32.91354296       5.23179539      19.51468062      -0.08103902      -0.02588987       0.00752860
Se       9.87920148       9.38912858      19.52297930      -0.04802821      -0.00761990      -0.00541178
Se      21.40614871       9.39661134      19.50159028      -0.10591956       0.00860289       0.05584236
Se      32.91117229       9.40385338      19.51710846      -0.04518516      -0.09025466      -0.02420021
Se       9.88430584      13.55871273      19.50446903      -0.05079541       0.00540089       0.07411587
Se      21.39190260      13.54804912      19.51692671      -0.03319899       0.06357634      -0.02555313
Se      32.91950076      13.54651626      19.50652946      -0.13550674       0.05714117       0.06010909
Se       9.86402917      17.73906983      19.51566726       0.11398920       0.00157060       0.03113724
Se      21.40448228      17.74924651      19.52427715      -0.02985027      -0.09067679      -0.03392552
Se      32.90808864      17.74363532      19.51070460      -0.06150125      -0.00722745       0.01767487
Sn       7.13292656       1.03222602       1.79062685      -0.03902423       0.00818632      -0.02378908
Sn      18.65235731       1.04545511       1.78051095      -0.02973092      -0.04703407       0.00228776
Sn      30.16064040       1.01473128       1.78529566      -0.03678271       0.11105966       0.02626223
Sn       7.12322092       5.21692933       1.78933840       0.02246753      -0.00735203      -0.02238235
Sn      18.63974819       5.20603354       1.78085905       0.04126615       0.05886960       0.00099754
Sn      30.15731285       5.21858495       1.78389227       0.01762864      -0.01894563       0.05828336
Sn       7.13474815       9.38066440       1.78403008      -0.09519002       0.02483558       0.02687090
Sn      18.65339518       9.37417863       1.78406954      -0.04742544      -0.00321677      -0.02887009
Sn      30.15078352       9.38781764       1.77322500       0.06697878       0.02739300       0.02076768
Sn       7.12265895      13.58402644       1.76962877       0.05051497      -0.04071651      -0.00611377
Sn      18.62879978      13.55259454       1.79954726       0.04748029       0.05873272      -0.04283965
Sn      30.15201390      13.56535750       1.77824525       0.06127626      -0.02603140       0.05755255
Sn       7.11491023      17.73735152       1.80685551       0.07019095      -0.00392085      -0.04445197
Sn      18.65441659      17.73117365       1.78874882      -0.04371577       0.02461323      -0.04662646
Sn      30.14832207      17.72193935       1.79246819       0.05553973       0.05396038       0.00993253
Sn       7.13595539       1.05380699       6.13867830      -0.05412575       0.00274853       0.00083731
Sn      18.63882812       1.05084412       6.14729192      -0.04258959      -0.01041984       0.01641135
Sn      30.15270093       1.02715575       6.14451571       0.01293311       0.08160167       0.00207648
Sn       7.13514456       5.20545972       6.14976455      -0.04715575       0.03110993      -0.04210910
Sn      18.64381130       5.22493709       6.15209671       0.00708085      -0.01795005      -0.01625703
Sn      30.14969265       5.20126601       6.13804176       0.06527511       0.01742024       0.00296868
Sn       7.13324573       9.38610471       6.13643652      -0.02742784       0.02972719       0.02202429
Sn      18.62228238       9.40905122       6.15163409       0.11184882      -0.07564164      -0.04960397
Sn      30.16433626       9.40120200       6.14914404      -0.03146921       0.00446881      -0.02864458
Sn       7.12191117      13.56397625       6.13910131       0.07764528      -0.01295030      -0.03879897
Sn      18.66684329      13.57117301       6.13873895      -0.19552850       0.00647482       0.01424049
Sn      30.16129227      13.55550520       6.15842202      -0.10211217       0.02845860      -0.05935750
Sn       7.11774377      17.74471388       6.15403673      -0.02738002       0.03410255      -0.00647605
Sn      18.64434357      17.74064773       6.14348498       0.04430469      -0.02110980       0.00960592
Sn      30.15607289      17.73393604       6.13888212       0.03455163      -0.01320854      -0.00911792
Sn       7.13915036       1.04226110      10.49662287      -0.09573020      -0.00572772       0.01901665
Sn      18.63533290       1.05435017      10.51123690      -0.02440802      -0.02522920      -0.01437549
Sn      30.16224059       1.04077126      10.51021446      -0.00590314       0.02511908      -0.03438679
Sn       7.11791885       5.21483947      10.51417888       0.03636288      -0.03001495      -0.05161200
Sn      18.64923866       5.20761651      10.49592557      -0.07763357       0.01339496       0.03015018
Sn      30.15772432       5.23469693      10.48532518      -0.01686527      -0.08434624       0.02675827
Sn       7.12713779       9.37776431      10.49813753      -0.02112062       0.06796010       0.03809991
Sn      18.63685160       9.38731966      10.49914288       0.00785941       0.00496771       0.05015642
Sn      30.15670937       9.38617219      10.48985626       0.01178318       0.03137021       0.06429421
Sn       7.13215316      13.57314261      10.51291258      -0.04181846      -0.07821092       0.01898687
Sn      18.62508854      13.56860307      10.51124063       0.03324284      -0.00384903       0.00071514
Sn      30.14632528      13.56570562      10.50331817      -0.05742592       0.01430953      -0.00404664
Sn       7.14277597      17.75894799      10.48783727      -0.06373010      -0.03661326       0.06572767
Sn      18.66543515      17.73055077      10.51428757      -0.04407079       0.01292304      -0.04044877
Sn      30.16634228      17.72974612      10.50941351      -0.00919805       0.03907237      -0.03191460
Sn       7.12327912       1.04888977      14.86789144      -0.03476715      -0.04398710      -0.04279974
Sn      18.65245927       1.04410046      14.86390598      -0.07472712       0.00038235       0.01794069
Sn      30.16759794       1.04915043      14.87290285      -0.05891365      -0.00975786      -0.02486820
Sn       7.11770859       5.20698298      14.85990750       0.09447146       0.01712561       0.03230763
Sn      18.63428767       5.22529760      14.87534456       0.07085976      -0.00425353      -0.00792235
Sn      30.15508600       5.23174480      14.87926941       0.03692690      -0.02614199      -0.06797627
Sn       7.12678845       9.38330583      14.88133848      -0.02652289       0.04673989      -0.01484352
Sn      18.63988571       9.39278640      14.86218867      -0.04399785       0.01128582       0.02665709
Sn      30.14773940       9.37683835      14.87191340       0.07476608       0.08620387      -0.00952613
Sn       7.11652045      13.59620920      14.85472398       0.02896349      -0.10411270       0.00577538
Sn      18.62792206      13.57071527      14.88087785       0.06306849      -0.04556031      -0.02277417
Sn      30.15728320      13.57133631      14.84714924      -0.02620911      -0.04104701       0.07126328
Sn       7.11757934      17.72896687      14.84663426       0.09563651       0.05734980       0.04853940
Sn      18.64166568      17.71727475      14.85236276       0.07385547       0.08246457       0.04413733
Sn      30.15126536      17.73139017      14.86954880       0.07615522       0.04168754      -0.00703529
Sn       7.12741026       1.05228445      19.23421243      -0.05079219      -0.03734302       0.00695612
Sn      18.65190401       1.04332728      19.22972327      -0.07429358      -0.03714604      -0.01031768
Sn      30.16175244       1.04476303      19.22271665      -0.03673916       0.00769551       0.03389208
Sn       7.12103003       5.20926002      19.23090476      -0.00673153       0.02215832      -0.01250883
Sn      18.63955573       5.21080387      19.22006615      -0.02148534       0.03508645       0.05555293
Sn      30.14453331       5.22722402      19.22747477       0.09640895      -0.05107665      -0.02550912
Sn       7.11572646       9.39961022      19.22108411       0.05305293      -0.04988392       0.01891581
Sn      18.62643087       9.40173697      19.22131763       0.10319693      -0.04806324       0.01194999
Sn      30.15254831       9.39193655      19.23811449       0.00283264       0.03675039      -0.05439896
Sn       7.12455483      13.55362272      19.23212737       0.02716048       0.06123134      -0.00497019
Sn      18.63564598      13.58449313      19.22667740       0.01520211      -0.09323479      -0.01096418
Sn      30.13428695      13.56918754      19.24613457       0.16123320      -0.00361649      -0.12554482
Sn       7.14011366      17.75801257      19.21649099      -0.10451241      -0.03594522       0.05379209
Sn      18.64961740      17.73248308      19.22893149      -0.00214652       0.03282872      -0.00699530
Sn      30.14390778      17.73325847      19.21992613       0.05391108      -0.00710518      -0.03783466
Sn       4.40007482       3.13839823       2.58202987      -0.07111146      -0.04199904      -0.02882969
Sn      15.89372648       3.12727464       2.57180051       0.00256115       0.00960657      -0.00704302
Sn      27.43206887       3.14217289       2.58982553       0.00636104      -0.03753543      -0.00032202
Sn       4.38353708       7.27708485       2.56159205       0.02704702       0.09860894       0.06114231
Sn      15.92144696       7.30046763       2.57175442      -0.06240795       0.04078911      -0.00599572
Sn      27.43979871       7.31713178       2.57950616      -0.05941752      -0.06068116       0.01494544
Sn       4.38815524      11.47724830       2.58153330      -0.03046001      -0.06311309      -0.01980638
Sn      15.92323116      11.48279399       2.58652196      -0.13325083       0.03112214       0.01243528
Sn      27.43506481      11.46687256       2.58681029      -0.03201857       0.05607594      -0.04751072
Sn       4.38814358      15.62749751       2.55797998       0.05570054       0.08279850       0.04537286
Sn      15.89704952      15.65797069       2.58039967       0.07845288      -0.07166911       0.00431907
Sn      27.42521578      15.67216789       2.56657077      -0.00677076      -0.08362723       0.06409940
Sn       4.39081494      19.82979195       2.57189894       0.00066122      -0.02629767       0.01055005
Sn      15.90751396      19.81074810       2.59336073      -0.03444948       0.07267075      -0.05906341
Sn      27.41655597      19.84706160       2.57893693       0.03314197      -0.07504155       0.04242085
Sn       4.40136981       3.12985801       6.94005811       0.01350242       0.02785479       0.01003128
Sn      15.90139040       3.13158228       6.94354554       0.02345160       0.02994628      -0.02238717
Sn      27.41552953       3.12914059       6.93426456       0.01393753      -0.00089349       0.00898078
Sn       4.41408591       7.30358287       6.95581787      -0.08335393      -0.01283607      -0.01854979
Sn      15.90527447       7.30707305       6.92715191      -0.00050441      -0.04795990       0.00160202
Sn      27.41890139       7.30658552       6.95622559       0.07232859      -0.05334907      -0.08086391
Sn       4.39330910      11.49240652       6.94677284       0.02662672      -0.06897560      -0.05333276
Sn      15.92350471      11.47797889       6.96426778      -0.07733280       0.06859210      -0.14527351
Sn      27.41851815      11.47090470       6.92826502      -0.00712115       0.02260790       0.02661163
Sn       4.41439952      15.66085293       6.93702434      -0.06487879      -0.00316312      -0.00670099
Sn      15.91972092      15.65953538       6.96002683      -0.01823309      -0.03894853      -0.11626816
Sn      27.40789378      15.65000486       6.93574034       0.09787427       0.00633635      -0.03065804
Sn       4.37135244      19.83735087       6.93766159       0.04833619      -0.06991965      -0.03967419
Sn      15.91462700      19.85034532       6.93683311      -0.06043387      -0.09805409       0.00363671
Sn      27.41916058      19.82793424       6.95023802       0.04631219       0.02021591      -0.05545904
Sn       4.38542214       3.12408142      11.31204132       0.07875525      -0.00762639      -0.06908528
Sn      15.91101708       3.10994375      11.28921551      -0.03098297       0.09698465       0.05823703
Sn      27.43838447       3.13441032      11.29384747      -0.04814105      -0.03462434      -0.00176074
Sn       4.38938518       7.30461254      11.30882676       0.01406580      -0.00623994      -0.01807245
Sn      15.89364806       7.29607069      11.30419899       0.06095160      -0.04279706       0.02539817
Sn      27.42237377       7.31019877      11.28917436      -0.04849021      -0.00009457       0.00783424
Sn       4.39466056      11.48948515      11.30633762       0.05608260      -0.04238670      -0.02518271
Sn      15.90862181      11.47761048      11.29312092      -0.04746548      -0.01195973       0.05135945
Sn      27.42265213      11.49116638      11.30027915       0.06533494      -0.01411813      -0.01366827
Sn       4.38219123      15.64773599      11.30347793       0.03533278       0.03491534      -0.01257950
Sn      15.90349555      15.65751149      11.30669787      -0.01345099      -0.02078043      -0.04167832
Sn      27.43226194      15.66689405      11.31142802       0.00896174      -0.01998746      -0.04214352
Sn       4.38174688      19.81771225      11.30071172       0.07180968       0.01612101       0.01021754
Sn      15.90271894      19.81536433      11.29705251       0.02862533       0.02685259      -0.03958692
Sn      27.41862698      19.82002912      11.29831154      -0.02970712       0.03440248      -0.04394315
Sn       4.40287378       3.13238342      15.68729140      -0.08497354      -0.02458460      -0.05793583
Sn      15.90893577       3.12749038      15.66261464       0.02329424       0.00857873       0.00516044
Sn      27.42593703       3.13474358      15.68334042       0.00508486      -0.02898952      -0.07223625
Sn       4.38263607       7.31307064      15.66465082       0.01247212       0.01036716      -0.00740006
Sn      15.89151971       7.31218716      15.67524955       0.04543351      -0.02253278      -0.06889816
Sn      27.41480035       7.30439084      15.64531977      -0.00667136       0.05056261       0.05604161
Sn       4.37850121      11.48904961      15.65790915       0.03490247       0.01056198      -0.01175536
Sn      15.89614266      11.48086392      15.65734919       0.05933675       0.00995022       0.00788841
Sn      27.41866390      11.48596258      15.65095598       0.00332422       0.00757693       0.07087409
Sn       4.38203562      15.65419926      15.67226741      -0.03893243      -0.01787877      -0.02454429
Sn      15.91961229      15.64600784      15.67194708      -0.03781205       0.03842059      -0.02991486
Sn      27.41553069      15.67092055      15.65123560       0.06419057      -0.06810275       0.03389771
Sn       4.40437406      19.82018274      15.68270578      -0.04575388       0.02323407      -0.05795894
Sn      15.91314390      19.81658743      15.65735093      -0.01349559       0.03061276       0.01802291
Sn      27.43118392      19.83727404      15.66186615      -0.04848118      -0.01593833      -0.02857952
Sn       4.39153585       3.13797457      20.02499517      -0.04874011      -0.07459992      -0.03585624
Sn      15.89429564       3.12226130      20.02602839       0.07708287       0.03954042      -0.04148039
Sn      27.43552694       3.14655086      20.03147248      -0.07018031      -0.03027082       0.01250027
Sn       4.39396218       7.31196832      20.01700968      -0.01012043      -0.02529046      -0.00313222
Sn      15.90569838       7.29623887      20.01118976      -0.01780222       0.03786970       0.07127350
Sn      27.42670760       7.30633531      20.03055372       0.05411734       0.03599695       0.00856470
Sn       4.39655039      11.48099576      20.02924336      -0.00333619      -0.01806576      -0.03748922
Sn      15.90680386      11.48269823      20.01641575       0.00283469      -0.00916303       0.05044665
Sn      27.42706917      11.48525349      20.01698038      -0.03609612      -0.01757307       0.01721717
Sn       4.39160759      15.64642243      20.01841212      -0.00499103       0.03188054       0.03692153
Sn      15.89598140      15.66531621      20.03433404      -0.01158395      -0.03430885      -0.03863694
Sn      27.42874645      15.67238042      20.02178473      -0.05057676      -0.08975514      -0.04034711
Sn       4.42140690      19.82447230      20.02622912      -0.12083650      -0.00269731       0.06282122
Sn      15.90325291      19.83047085      20.03203334       0.05284636      -0.03542578      -0.04742271
Sn      27.42223295      19.84451480      20.02606868       0.01840375      -0.03536547      -0.01773131
Sn      10.15186484       3.12130106       3.96701001      -0.06659954       0.01157480      -0.04286599
Sn      21.66396113       3.12430864       3.95506027       0.01806100       0.05010374       0.04437245
Sn      33.20816046       3.12775626       3.94825516      -0.11220719      -0.00411844       0.05255549
Sn      10.14217777       7.30396450       3.96829169       0.03199317      -0.01204002      -0.00051459
Sn      21.67084937       7.31124632       3.95637641       0.01831737      -0.02548707       0.05541194
Sn      33.18484723       7.29571958       3.95662859       0.02922663       0.00754932       0.05207035
Sn      10.13998289      11.46668543       3.97346711       0.02645775       0.06105659       0.01842758
Sn      21.67218752      11.48833597       3.96321815       0.01342174      -0.06090527      -0.02950505
Sn      33.18921090      11.46095642       3.97145589      -0.07095984       0.08412793      -0.04636547
Sn      10.15093118      15.65892955       3.96662525       0.03612160      -0.00414292       0.01839406
Sn      21.65543085      15.63767806       3.95570447       0.07165595       0.06605248       0.04753366
Sn      33.18709199      15.65955937       3.94914559      -0.04147868      -0.04374307      -0.01292767
Sn      10.13934899      19.81951524       3.95925197       0.12766858      -0.00250730       0.05743323
Sn      21.65168089      19.81252708       3.95460666       0.07249150       0.01781411       0.06574322
Sn      33.18230536      19.81494165       3.96166698       0.01013436       0.04518443      -0.00424941
Sn      10.15974551       3.11737324       8.32186444      -0.04587981       0.05736318       0.02972281
Sn      21.67554897       3.12620835       8.31819220      -0.03837862       0.04791432       0.00859662
Sn      33.19307778       3.12732902       8.33497385      -0.07864802       0.03282135      -0.05904552
Sn      10.15344964       7.30105173       8.32872580      -0.03723486       0.03139516       0.00637725
Sn      21.66850590       7.31468901       8.31844544      -0.05550710      -0.03182694       0.00024716
Sn      33.18185488       7.30386502       8.33097038       0.03687874      -0.03472658      -0.06031280
Sn      10.13890819      11.48873909       8.32859218       0.04222114      -0.05099349       0.02782186
Sn      21.65213215      11.49065195       8.34626983       0.07976388      -0.05310232      -0.04462201
Sn      33.19146116      11.49283916       8.32478261      -0.03518029      -0.05604575      -0.03257048
Sn      10.13254493      15.63421725       8.32647972       0.06118994       0.04457512      -0.01137409
Sn      21.65938161      15.64351269       8.32330143       0.03420513       0.04296344       0.01086151
Sn      33.18759867      15.63813088       8.31944012       0.00406644       0.07911369       0.00840824
Sn      10.16425869      19.81599471       8.33262651      -0.01406473       0.05262275      -0.04004142
Sn      21.66045409      19.83220553       8.33490217       0.01434169       0.00437375      -0.03856058
Sn      33.18885564      19.83583919       8.31241296       0.00843684      -0.01612139       0.07401392
Sn      10.16029658       3.12186411      12.68762819      -0.05849506       0.04652400      -0.00146015
Sn      21.66788386       3.13524226      12.68840234      -0.00376868       0.03266885       0.03057661
Sn      33.17300472       3.11689236      12.69375626       0.02888481       0.08404100       0.00339863
Sn      10.15101833       7.31597395      12.68458545       0.00213707      -0.05474207       0.02849751
Sn      21.65124976       7.31414147      12.68132907       0.03923042       0.00740841       0.04676632
Sn      33.18486286       7.29800558      12.70147579      -0.00690855      -0.00579243      -0.00024337
Sn      10.14039433      11.47519502      12.68610726       0.01927399       0.03712872       0.00983278
Sn      21.65437958      11.48187451      12.70115188       0.04871288       0.01527893      -0.02225330
Sn      33.17653820      11.48252075      12.65753842       0.05725973      -0.00449408       0.10146606
Sn      10.14877069      15.64952803      12.67684780       0.12792679      -0.00810760       0.03691899
Sn      21.67611591      15.64939602      12.68325800      -0.03661013       0.02109697       0.01097185
Sn      33.17767089      15.63349030      12.67371291       0.02607426       0.11096248       0.03069133
Sn      10.15877092      19.80564809      12.67736962      -0.01444984       0.06674325       0.05687262
Sn      21.66130420      19.84418382      12.69271881       0.03277519      -0.08536512      -0.00325538
Sn      33.17587112      19.83979273      12.67762762      -0.01887583      -0.05795626       0.00551103
Sn      10.15925098       3.11680226      17.05686923      -0.04184742       0.04604338      -0.07065733
Sn      21.66124007       3.12010599      17.04396522       0.05151779       0.03998287      -0.02453322
Sn      33.18421626       3.12544355      17.05167619       0.10534045       0.03986099      -0.01021444
Sn      10.14333004       7.31068390      17.05055888      -0.00624330      -0.02775404      -0.05143049
Sn      21.66469217       7.30006635      17.04765206      -0.01052996       0.00193035      -0.00794857
Sn      33.18694536       7.32509817      17.05553086      -0.01261781      -0.03656313      -0.03233715
Sn      10.15891988      11.50945444      17.05129624      -0.02351290      -0.07319367      -0.02865353
Sn      21.67014784      11.48560947      17.03604700      -0.01993253      -0.03295865       0.00405363
Sn      33.17700381      11.47350762      17.05261280      -0.06186530       0.07671505      -0.02217638
Sn      10.14741824      15.65404069      17.05701120       0.00379798      -0.00144127      -0.03157745
Sn      21.67393291      15.65104125      17.03943671       0.00472059       0.01217004      -0.03256834
Sn      33.19279557      15.66039737      17.03007409      -0.02957065      -0.03899870       0.05529840
Sn      10.14602844      19.82840275      17.05392495      -0.01116786      -0.00360501      -0.07284639
Sn      21.67440242      19.82958666      17.05198913      -0.07781804      -0.06747180      -0.04388652
Sn      33.18208419      19.82000908      17.04352401       0.00903502       0.01052051      -0.01590791
Sn      10.14934989       3.13004424      21.38838481      -0.02258405       0.00974051       0.05523575
Sn      21.66132657       3.13095309      21.40442684       0.02348577       0.02022233      -0.00658310
Sn      33.17897458       3.13527095      21.39645096       0.03333282      -0.00491668      -0.01393993
Sn      10.13287956       7.30099848      21.41488168       0.02715738       0.00142835      -0.00734964
Sn      21.68217693       7.31230146      21.39255790      -0.07406538      -0.00419757       0.00176069
Sn      33.17911915       7.30704652      21.40901645       0.02885194      -0.00940824      -0.01510316
Sn      10.15455303      11.46939883      21.40788997      -0.05513093       0.02268609      -0.01104904
Sn      21.66950463      11.48682603      21.39918335      -0.02858457      -0.06988937       0.01951027
Sn      33.17799125      11.45153114      21.40102592       0.04624000       0.13141316       0.03486610
Sn      10.14391583      15.64246261      21.40889666      -0.03583972       0.01074336      -0.02514996
Sn      21.66474195      15.63006632      21.40939562      -0.03526822       0.05692732      -0.01457758
Sn      33.17215958      15.65751535      21.39442202       0.00858668      -0.06617903      -0.02253354
Sn      10.14946005      19.82391596      21.41027156      -0.05597247       0.00064623      -0.00806035
Sn      21.66654837      19.82419596      21.39187781       0.02247862       0.01830505       0.04566178
Sn      33.16667074      19.82090873      21.40715774       0.02714379       0.03452884      -0.02196293
Sn       1.36020127       1.04959859       0.39591752       0.02578891       0.00389873       0.00746442
Sn      12.87277504       1.04056550       0.40096833       0.01326078      -0.01330416       0.00858126
Sn      24.40181544       1.06213026       0.39202064       0.00620620      -0.06019118       0.04958444
Sn       1.36554896       5.22169685       0.39847550       0.01030708      -0.05970618      -0.01568008
Sn      12.87741899       5.20194304       0.39360139       0.01848491       0.10374554       0.00440605
Sn      24.38782957       5.20016954       0.39075294       0.03016549       0.05118535       0.05869645
Sn       1.35581283       9.39736261       0.40472065       0.06608286      -0.02888724       0.00248882
Sn      12.87338638       9.38892246       0.38012730       0.10112706       0.01430372       0.10573880
Sn      24.39362319       9.39551457       0.40695911      -0.01896241      -0.05526348      -0.03809238
Sn       1.35915328      13.57613244       0.38355281       0.04255631      -0.07621516       0.01049985
Sn      12.86994889      13.57271051       0.41542094       0.07899212      -0.03612489      -0.01049477
Sn      24.40350091      13.56521046       0.37675789       0.03734339      -0.02737777       0.08704435
Sn       1.34605928      17.74099712       0.39512910       0.11570530       0.05592460       0.03389191
Sn      12.87136682      17.74035835       0.39986104       0.01867148      -0.00316037       0.02529027
Sn      24.40801075      17.74106905       0.41099367      -0.01956980       0.01785126      -0.01400518
Sn       1.36636369       1.04219312       4.77045673      -0.07432140       0.01984267      -0.06427031
Sn      12.87264076       1.07149094       4.76356619       0.02625813      -0.14528762       0.01063809
Sn      24.40237488       1.04859743       4.77858498      -0.04485134      -0.07983240      -0.09599866
Sn       1.37420882       5.20138505       4.77384831      -0.03481589       0.13358996      -0.06074574
Sn      12.87901620       5.21850716       4.74702107       0.05732784       0.05669962       0.02421160
Sn      24.40382861       5.21092186       4.76081531      -0.00804704       0.02193406       0.00868686
Sn       1.36344276       9.41077488       4.77963621       0.07778890      -0.09429966      -0.01849199
Sn      12.88289030       9.39216452       4.75607918       0.00108341       0.05671731       0.02477855
Sn      24.40962665       9.38823555       4.75560024      -0.05250267       0.01569391       0.02563567
Sn       1.37606968      13.56023090       4.75943606      -0.06765042       0.01132901      -0.03580490
Sn      12.86661206      13.57265579       4.77922228       0.02307073      -0.06339183      -0.00189889
Sn      24.40577884      13.58023188       4.75135259       0.05620796      -0.06677091       0.01014012
Sn       1.36864699      17.73027143       4.75753596       0.05248009       0.02436705      -0.02995728
Sn      12.89014728      17.74072123       4.74568720      -0.09825104      -0.00590455       0.12187460
Sn      24.38541630      17.72589139       4.76472814       0.05323334       0.10004222      -0.03271990
Sn       1.38692270       1.05697105       9.10195764      -0.04062830      -0.05238325       0.05093188
Sn      12.89663593       1.05271047       9.10546449      -0.14656377      -0.04567430       0.03812123
Sn      24.39553457       1.05430169       9.12642183      -0.03283964      -0.05375594       0.02423452
Sn       1.35319280       5.22354303       9.09954248       0.04464951       0.03362493       0.06936651
Sn      12.88019695       5.22881517       9.12110143       0.02636129      -0.01752552      -0.02179219
Sn      24.39357721       5.22632907       9.13066501      -0.03015306      -0.04641891       0.01451757
Sn       1.37938415       9.40026817       9.13173124      -0.05941329      -0.02301015       0.00629736
Sn      12.88975426       9.39418003       9.12181258      -0.04332884       0.03036572      -0.05043398
Sn      24.39619399       9.37940106       9.11136438       0.04871907       0.08053341       0.04231780
Sn       1.36346361      13.56802841       9.13532562       0.05942585      -0.00113420      -0.02637689
Sn      12.88200720      13.57564865       9.13171065      -0.05408254      -0.04050133      -0.05524130
Sn      24.39625212      13.57156079       9.11848221       0.05989034      -0.06512406       0.00138208
Sn       1.37950511      17.74606146       9.10901265      -0.07714672      -0.04404391       0.02861963
Sn      12.88404042      17.75618415       9.11910518       0.02154205      -0.04990839      -0.02179420
Sn      24.40304374      17.74516182       9.11055126      -0.04933953       0.02218554       0.01701078
Sn       1.37139083       1.02940812      13.47576513       0.04172022       0.07094004       0.00237923
Sn      12.89318240       1.04691403      13.47897659      -0.06245819      -0.03997542       0.00485989
Sn      24.40303120       1.04274554      13.48214716       0.01244934      -0.03298129       0.00800750
Sn       1.37285194       5.21016193      13.48242473      -0.04838474      -0.05936319      -0.00736284
Sn      12.87930249       5.20157957      13.47281681      -0.00571760       0.06401274       0.02459250
Sn      24.41424865       5.22128284      13.46878549      -0.05822149      -0.03354483       0.05797126
Sn       1.35088021       9.39040311      13.49763324       0.02176870      -0.01923824      -0.08340935
Sn      12.88055759       9.40459474      13.48554068       0.03371473      -0.09168017      -0.02789031
Sn      24.40327909       9.37816754      13.49139660      -0.05585003       0.06835725      -0.03260038
Sn       1.36293443      13.57424481      13.47387967      -0.02558688      -0.02008590       0.02019293
Sn      12.88419566      13.56913392      13.48048104      -0.00260849       0.02048759      -0.03574238
Sn      24.40261204      13.56294992      13.47553077      -0.04718712      -0.08378547      -0.01813431
Sn       1.38233858      17.75019256      13.47441272      -0.09431841      -0.03709546       0.05228648
Sn      12.88810961      17.73227624      13.47017452      -0.06875017       0.03153844       0.08260384
Sn      24.40890468      17.72266203      13.49128993      -0.06681582       0.08341491      -0.00965729
Sn       1.36375653       1.04123100      17.84722276      -0.00194661       0.02926949      -0.02185970
Sn      12.88823716       1.03508304      17.85030251      -0.01439902       0.00581490      -0.06949416
Sn      24.39970030       1.03078592      17.84142651       0.00244735       0.05332063      -0.02058871
Sn       1.38009654       5.23420155      17.85029874      -0.13782194      -0.04786170      -0.03490229
Sn      12.87052174       5.22234168      17.85163386       0.04793270       0.01543971      -0.03848544
Sn      24.40582367       5.22528515      17.84675788      -0.03470927      -0.04627014      -0.01131411
Sn       1.36555963       9.38544107      17.82414590       0.00703217       0.03924703       0.07618574
Sn      12.88582159       9.39338528      17.84870101      -0.06775967      -0.01439635      -0.02893238
Sn      24.38519115       9.39797491      17.86367070       0.02079487      -0.01264912      -0.05367338
Sn       1.36706825      13.56499723      17.84621527      -0.07334713      -0.02447192      -0.05299330
Sn      12.90274854      13.55537741      17.84515732      -0.14278301       0.07522523      -0.02828056
Sn      24.39057002      13.56014384      17.84262935       0.05509965      -0.01278494      -0.01485058
Sn       1.37975698      17.75771293      17.84760667      -0.07237572      -0.02345833      -0.00249765
Sn      12.87865922      17.76463042      17.83884971       0.03354559      -0.11135331      -0.01808519
Sn      24.39285523      17.72195360      17.85708617       0.02102407       0.05978366      -0.04831264
600
Lattice="34.548424260000004 0.0 0.0 0.0 20.870445700000005 0.0 0.0 0.0 21.8055194" Properties=species:S:1:pos:R:3:forces:R:3 mlfcs_configuration_id=2 mlfcs_sampling_method=gaussian pbc="T T T"
Se       4.12592939       1.06819167       0.09232535      -0.05346968      -0.08288794       0.04461216
Se      15.64697006       1.04471497       0.11428159      -0.13222325       0.03626826      -0.01921612
Se      27.13205200       1.05869443       0.11408575       0.07118673      -0.03916772      -0.03324593
Se       4.11585783       5.22455388       0.09856563      -0.02617484      -0.00436611      -0.00272202
Se      15.62659395       5.21346831       0.08769331       0.02458547       0.01251126       0.06936958
Se      27.15714736       5.23001869       0.09920715      -0.03313968      -0.04278318       0.02182921
Se       4.11972896       9.38953649       0.10950333      -0.00976330      -0.03195993      -0.01843794
Se      15.62611258       9.38335764       0.11674134       0.03432376       0.03923276      -0.02572077
Se      27.14789107       9.41241298       0.10668369      -0.00487834      -0.04551866      -0.03701276
Se       4.10698615      13.57855044       0.11252859       0.00285700      -0.04662714      -0.04180324
Se      15.63965708      13.57818704       0.09969262      -0.05201860      -0.04119533       0.00736623
Se      27.14725724      13.56456654       0.09331312      -0.00715816      -0.00641793       0.06228202
Se       4.11361103      17.75373397       0.10859397       0.04704366      -0.04872949      -0.01706097
Se      15.61892774      17.72481178       0.12286835       0.08792180       0.07704619      -0.08645986
Se      27.14762658      17.73389607       0.10348067       0.03582239       0.01177156       0.01933518
Se       4.10147386       1.05824457       4.46339394       0.10305960      -0.04606315       0.01571411
Se      15.64606237       1.04453013       4.48161979      -0.04587050      -0.01659941      -0.04701911
Se      27.15109672       1.05254594       4.47451540       0.00154423      -0.00410419      -0.07194840
Se       4.12247984       5.22158210       4.46499596      -0.03801195      -0.02347297      -0.01880618
Se      15.65154270       5.20903338       4.46736754      -0.09966358       0.05108002      -0.00053804
Se      27.14867863       5.22212716       4.46302974      -0.01341998      -0.00607846       0.02558718
Se       4.11939440       9.39050347       4.45150494      -0.02020132       0.00442075       0.05700773
Se      15.63248388       9.38118624       4.44998061      -0.00818556       0.04922041       0.06536153
Se      27.14989851       9.39707073       4.47259145       0.01914255       0.00190966      -0.02514379
Se       4.12191864      13.54695514       4.45371430      -0.01345470       0.05622121       0.09988675
Se      15.65212357      13.55580895       4.47343288      -0.09897585       0.01754315      -0.01660487
Se      27.14166040      13.56707776       4.46099193       0.05641528       0.00238998       0.04244203
Se       4.12186234      17.74173792       4.46284157      -0.01194880      -0.01213436       0.03962879
Se      15.62188663      17.74304792       4.45519728       0.04827565       0.03366017       0.06187015
Se      27.15280458      17.76663502       4.48082617       0.00857990      -0.15318293      -0.01873451
Se       4.12343041       1.04315754       8.80904082      -0.04820675      -0.04649638       0.08322035
Se      15.61916549       1.05684154       8.82053079       0.08413606      -0.08622751       0.04271566
Se      27.14153725       1.04235711       8.81780788       0.05888933       0.00106139       0.06574332
Se       4.10397925       5.21759801       8.81951305       0.03985118      -0.02176312       0.02624014
Se      15.62497817       5.21029084       8.83365195       0.02582675       0.05280189      -0.02911189
Se      27.14620852       5.21631703       8.83439781      -0.03766171      -0.00711355      -0.00257728
Se       4.11482654       9.38940936       8.83313285       0.04017618       0.03014240      -0.03660776
Se      15.63907033       9.39072116       8.82923443      -0.07526283       0.01139753       0.02053819
Se      27.14071187       9.38358506       8.83611982       0.11603761       0.00984174      -0.03159743
Se       4.12069635      13.57083402       8.83123689       0.00240751      -0.01753690      -0.04964822
Se      15.63285039      13.57324515       8.83777943       0.04170242      -0.02057308      -0.05621888
Se      27.15764205      13.56527326       8.84229827       0.00236374      -0.01049397      -0.07623875
Se       4.11853154      17.74669394       8.83124923      -0.01885437      -0.03088982      -0.03976869
Se      15.63485842      17.73301265       8.83544186       0.04027671       0.05201895      -0.02887113
Se      27.17698272      17.73662222       8.82913829      -0.13798759      -0.00020688      -0.00941394
Se       4.11178488       1.03913342      13.20497672      -0.00410937       0.05107478      -0.08777232
Se      15.62565864       1.03927281      13.17365730       0.00849562       0.01346849       0.06572641
Se      27.14095366       1.02692962      13.19585027       0.06329181       0.07645956      -0.06982560
Se       4.14424391       5.21443597      13.17286465      -0.10521658       0.03760320       0.09509635
Se      15.64138835       5.21083350      13.20252570      -0.05617575       0.03403404      -0.10732560
Se      27.14570948       5.21178460      13.18775265       0.07215028       0.01987534       0.01262754
Se       4.12382470       9.38991769      13.18456498      -0.01263967      -0.02004939       0.02391451
Se      15.63040004       9.37947334      13.19350254      -0.00753507       0.03547616      -0.00942639
Se      27.13066251       9.38775068      13.19712608       0.11804609      -0.00251107      -0.05666273
Se       4.11927742      13.57218424      13.18888177       0.01276966      -0.05040888      -0.00698156
Se      15.64408581      13.57552803      13.19399364      -0.05071587      -0.03978281       0.00670133
Se      27.15780523      13.57378527      13.18513759      -0.10114492      -0.05463603       0.00576764
Se       4.10280794      17.74457380      13.19499312       0.01181429       0.02341452      -0.08100824
Se      15.64329307      17.73100696      13.18046792      -0.05817939       0.09942285       0.03143011
Se      27.15312878      17.73965850      13.17067461      -0.01278284       0.00987319       0.06088582
Se       4.11999801       1.02548939      17.54118354       0.01827340       0.09148555       0.05713678
Se      15.64590517       1.06226240      17.53847954      -0.07937334      -0.11694900       0.05250490
Se      27.14523586       1.04443984      17.56844838       0.02106180       0.00445754      -0.01364132
Se       4.11131824       5.21333391      17.56612336       0.04547257       0.03662668      -0.04126327
Se      15.62864046       5.22532477      17.53586468       0.08463000      -0.04223495       0.06432747
Se      27.14681745       5.20150679      17.54008177       0.02736120       0.09457059       0.07695034
Se       4.12463895       9.39169284      17.54744505      -0.06084399      -0.00886892       0.01304811
Se      15.62490086       9.38998533      17.55364724       0.02614512      -0.01286484      -0.03354739
Se      27.15835893       9.36594043      17.54231850      -0.03006363       0.11719917       0.05080493
Se       4.11783790      13.56529240      17.55466987      -0.01364308      -0.01283663      -0.01235022
Se      15.63506376      13.56323236      17.54536758       0.03336266      -0.00195688       0.01597471
Se      27.14607476      13.57776846      17.54331603      -0.01187214      -0.07505624       0.02998176
Se       4.11561887      17.74220360      17.56623962      -0.04890520       0.02176901      -0.07100213
Se      15.62938527      17.74995824      17.56295590       0.03370744      -0.06100710      -0.06320201
Se      27.14789223      17.73826298      17.54734557       0.03944238      -0.00595659       0.05632821
Se       7.39657487       3.13960058       4.25791763       0.05002604      -0.05625316       0.03053315
Se      18.91762742       3.11980595       4.24593263      -0.06281339       0.02986538       0.06064719
Se      30.45285041       3.12927993       4.24785981      -0.10242438      -0.01329368       0.04785099
Se       7.41344409       7.30796541       4.26138908      -0.10213492       0.01713569      -0.03561578
Se      18.91389405       7.30196059       4.25391166       0.00471991       0.03503868       0.00325969
Se      30.41758856       7.30426805       4.25856786       0.07321634       0.00637570       0.00450520
Se       7.41763773      11.48009645       4.23226576      -0.12112736       0.01592917       0.11501520
Se      18.91433466      11.50663151       4.26427119      -0.04691441      -0.16468319      -0.09593142
Se      30.42330705      11.48514753       4.24818739       0.00325114      -0.02757541       0.04858912
Se       7.38559502      15.64984191       4.25652279       0.07469026       0.02028278       0.00325569
Se      18.89655296      15.64183401       4.25571088       0.11019039       0.08669533      -0.00852935
Se      30.42733421      15.65727372       4.24346084       0.06117846      -0.05702310      -0.00321937
Se       7.40627424      19.81557715       4.27203487      -0.02494509       0.02182140      -0.05877498
Se      18.89811694      19.81648920       4.25978124       0.10352418       0.03235759      -0.00743132
Se      30.44805827      19.83056517       4.26123611      -0.10832460      -0.03272089       0.00481259
Se       7.39930847       3.12079420       8.61181002       0.03027361       0.05528168       0.00339939
Se      18.90315542       3.11827108       8.62072890       0.05387327       0.05358347      -0.03031177
Se      30.42018416       3.13425372       8.60369318       0.03808745      -0.02582350       0.08380968
Se       7.40209693       7.30026050       8.63077756       0.00264430       0.04057952      -0.07263586
Se      18.91851171       7.31750515       8.60915494      -0.00403103      -0.06439849      -0.00719659
Se      30.43197737       7.29533645       8.61257535       0.01536825       0.00930600       0.03015333
Se       7.39651206      11.47197788       8.60455638       0.04953817       0.03648030       0.07643216
Se      18.90113935      11.45583898       8.60614794       0.02604321       0.09295077       0.02772011
Se      30.43769088      11.46325148       8.60303018      -0.00742803       0.11336997       0.02158505
Se       7.41704208      15.64696064       8.61992187      -0.11021516       0.04904564      -0.03254153
Se      18.92169769      15.65995087       8.60148827      -0.12461465      -0.04919614       0.03642196
Se      30.42910534      15.63714333       8.64117459       0.05707681       0.06368634      -0.12629841
Se       7.38318435      19.81693634       8.60630540       0.10003688       0.06745835       0.02844758
Se      18.90030791      19.84094068       8.64093589       0.08816920      -0.04721468      -0.10519750
Se      30.42665845      19.81421051       8.59434215       0.00535169       0.04770759       0.10247692
Se       7.39669201       3.12789453      12.97130233       0.01995432      -0.03551318       0.03328175
Se      18.91748827       3.13500992      12.98104612      -0.07364072      -0.03795821       0.00839409
Se      30.42825469       3.12004197      12.98447362       0.02646383       0.06073156      -0.03399827
Se       7.39925824       7.31403090      12.98571604       0.03989708      -0.05255713      -0.03935549
Se      18.90105690       7.29080510      12.97025988       0.10357877       0.04458274       0.00921549
Se      30.42085328       7.31269984      12.98132838       0.03666232      -0.04793097      -0.04772825
Se       7.41012494      11.48320133      12.97990178      -0.04857461      -0.00723412       0.02169046
Se      18.92727182      11.48393374      12.97849630      -0.03367836       0.01045044      -0.00583819
Se      30.44622047      11.48038827      12.97477188      -0.08280631      -0.07097683      -0.00973421
Se       7.39075487      15.66035586      12.99018579       0.07081811      -0.05413593      -0.00186333
Se      18.91476864      15.66640476      12.95811514      -0.00226630      -0.04195233       0.09239661
Se      30.43086141      15.65292466      12.97054534       0.00514427       0.01144502      -0.04230297
Se       7.42297171      19.82675282      12.97373798      -0.09749887      -0.01850849      -0.00461278
Se      18.91553414      19.80738661      12.97021661      -0.03325294       0.09143385       0.03219560
Se      30.44124834      19.82112529      12.96952654      -0.03614954       0.02811966       0.03480973
Se       7.41222836       3.14446073      17.34408907      -0.02036362      -0.03711978      -0.01171922
Se      18.91072335       3.12866347      17.33087767      -0.01559381      -0.00566469       0.01689446
Se      30.42146821       3.12061402      17.33273862       0.04755385       0.04145118       0.02296479
Se       7.38878589       7.28951027      17.34111319       0.05258068       0.07416089      -0.00167273
Se      18.91762047       7.32215525      17.33223578       0.04792751      -0.08745955       0.01723851
Se      30.43437694       7.30827445      17.33638079      -0.02622417      -0.00397989       0.00745118
Se       7.40657643      11.48698876      17.34219328      -0.02251190      -0.04612025       0.01068547
Se      18.91271812      11.47566116      17.32524163       0.02773572       0.00618201       0.08901578
Se      30.42335676      11.47301639      17.32767945       0.06213226       0.04097069       0.07160121
Se       7.40353234      15.66529188      17.32983854      -0.02948447      -0.06989239       0.03728955
Se      18.91810893      15.64298449      17.33586995       0.00632464      -0.01153164      -0.02010504
Se      30.42451264      15.65934456      17.33213129       0.01909584      -0.05404644       0.05898922
Se       7.40924970      19.82495754      17.33242313      -0.09168722       0.01511341       0.03164673
Se      18.90274147      19.82994679      17.34787135       0.04607557      -0.02620262      -0.05414321
Se      30.43414915      19.84980306      17.35321704       0.03450424      -0.10900864      -0.05343156
Se       7.39605782       3.12787791      21.70472001      -0.00494035       0.01268128      -0.04876607
Se      18.90689433       3.14272107      21.70363905       0.01533823      -0.06709949      -0.00943558
Se      30.43398053       3.13792772      21.71725135       0.00101688      -0.01723199      -0.06504370
Se       7.40084265       7.30401692      21.71511024       0.01475081      -0.01736319      -0.10910779
Se      18.92495002       7.30193753      21.70007491      -0.07588249       0.02301098       0.01367978
Se      30.43336975       7.30876545      21.68645705       0.00003779      -0.01170173       0.01450470
Se       7.38370825      11.47036256      21.69037566       0.06989190       0.02563907       0.02713854
Se      18.90883628      11.48558357      21.69833376       0.04586804      -0.00951116       0.04241436
Se      30.43337989      11.46699343      21.69540663       0.00592796       0.03830864       0.01737581
Se       7.40500568      15.65927513      21.69277731      -0.01052832      -0.03486233       0.04672934
Se      18.91689114      15.67531408      21.69984707       0.00435206      -0.10128433       0.03685091
Se      30.42448407      15.65158798      21.70094482       0.03735602      -0.00068588       0.01055191
Se       7.39762142      19.82710120      21.68558858      -0.05309286       0.02463147       0.03525904
Se      18.90564821      19.82592139      21.69837037       0.11313957       0.01887423       0.00631291
Se      30.42575405      19.82564461      21.70063320       0.01667465      -0.04014715      -0.00664960
Se       1.64995652       3.13006607       2.29076356      -0.00669657       0.05027890       0.00255035
Se      13.15178781       3.13677914       2.29052983       0.02912008      -0.03068982      -0.03248157
Se      24.68200340       3.13819279       2.29265988      -0.05147338       0.00745849       0.01929959
Se       1.64007821       7.30759672       2.29740762      -0.01999564      -0.00420752      -0.04864248
Se      13.15068306       7.29886325       2.28858684       0.06491383       0.00815424      -0.01553263
Se      24.67749803       7.29690626       2.28602490      -0.03428287       0.05048339      -0.00707010
Se       1.64012240      11.45708366       2.28457659      -0.00008339       0.12746830       0.00772164
Se      13.15563063      11.47763353       2.30093167       0.03601667      -0.00136655      -0.08350246
Se      24.66118725      11.47099024       2.26065057      -0.00092473       0.03685831       0.11813694
Se       1.63625322      15.64936917       2.28167276       0.03781197      -0.02831695       0.01702277
Se      13.16828058      15.66193178       2.28755109      -0.09457654      -0.08426207      -0.02513265
Se      24.66963910      15.66358750       2.28657495      -0.01248732      -0.05135974       0.00393933
Se       1.63287969      19.81025226       2.28235938       0.12703882       0.08878128       0.00696888
Se      13.16475025      19.85018013       2.28738863      -0.00449588      -0.07706175      -0.02634938
Se      24.66569167      19.81556509       2.29229208       0.06990488       0.03629399       0.04203751
Se       1.62341623       3.13656164       6.65605352       0.07558531      -0.01832764      -0.05005736
Se      13.16156660       3.12886157       6.65352581      -0.01888069       0.05281984      -0.04674856
Se      24.67505461       3.12327695       6.66638053      -0.04878330       0.03638771      -0.06242603
Se       1.63754560       7.31290485       6.62369026       0.02723622      -0.03661605       0.08731493
Se      13.16996852       7.31983496       6.64817475      -0.08621754      -0.03654797      -0.00478328
Se      24.67893294       7.31073248       6.64144857      -0.05905430      -0.06770144       0.05847557
Se       1.64653361      11.47115016       6.64178884       0.04276506       0.05904739       0.02028455
Se      13.16847324      11.48898304       6.64081265      -0.16843466      -0.02403922       0.05219424
Se      24.66600947      11.47278050       6.65520280       0.08601156       0.07452257       0.00006523
Se       1.63106254      15.65689273       6.65534488       0.09164232      -0.03592000      -0.05235418
Se      13.15632135      15.66342624       6.64483331       0.00695919      -0.00606259       0.05002150
Se      24.67120667      15.64355314       6.65804818       0.06315871       0.04683441      -0.06589217
Se       1.63339718      19.83091246       6.64716325       0.09747409      -0.06856899       0.02672945
Se      13.14667598      19.82132371       6.66170513       0.04491645       0.03775814      -0.03365541
Se      24.67536180      19.81732324       6.65092969      -0.02157646       0.03139070      -0.00060679
Se       1.63960125       3.16559865      11.01183153      -0.06567906      -0.18285792      -0.03067391
Se      13.15339756       3.14525846      10.99056993       0.04056004      -0.08681036       0.10892831
Se      24.67428843       3.15100247      11.00781829      -0.02018641      -0.07142734      -0.00893005
Se       1.62372938       7.30118814      11.02352547       0.10675175       0.00763008      -0.05195905
Se      13.16096450       7.29675876      11.00212786      -0.02977169       0.05330651       0.05692874
Se      24.66774823       7.30875930      11.02236225      -0.03227545      -0.01553150      -0.06673359
Se       1.65158662      11.48379659      10.99566384      -0.06728277       0.00266143       0.03223928
Se      13.14392448      11.48456898      10.99552558       0.01320922      -0.03778934       0.08799985
Se      24.67108956      11.48227797      10.99760435       0.03498583      -0.01563697       0.04683670
Se       1.63081977      15.65238439      11.01401679      -0.01020608       0.03596477       0.00728219
Se      13.16781900      15.65939614      11.00971685      -0.02803942      -0.02037386      -0.00823528
Se      24.66588328      15.64261653      11.00387152       0.01810077       0.06691162       0.02091171
Se       1.64516174      19.83078098      10.98798127      -0.01270632       0.02878735       0.08983078
Se      13.14934704      19.83945982      11.00977244       0.04382487      -0.03665605       0.04150263
Se      24.65917514      19.85097296      11.00869087       0.05054649      -0.10599436       0.04736883
Se       1.64490573       3.13505343      15.36640821      -0.05899512      -0.00155590      -0.01437503
Se      13.14992807       3.15227493      15.38011623       0.04775512      -0.10596122      -0.02941521
Se      24.68156460       3.13682108      15.36005099      -0.07119374      -0.00377030       0.01471973
Se       1.65383769       7.29671600      15.37291704      -0.03815856       0.03928034      -0.02501985
Se      13.14080991       7.28473874      15.37326708       0.02817592       0.08014274      -0.01781577
Se      24.66525424       7.28525565      15.37549026       0.02227758       0.08471412       0.01595487
Se       1.66226320      11.49313207      15.36751099      -0.06945257      -0.05888114       0.03125958
Se      13.15729226      11.48811353      15.38130545       0.00435580      -0.02980971      -0.03647602
Se      24.66990987      11.47957824      15.37309032       0.01768875      -0.00552570      -0.00873117
Se       1.64660115      15.65199484      15.36888331       0.00756380       0.05692744       0.02122799
Se      13.17100213      15.66542081      15.37485827      -0.04500909      -0.05355873      -0.02976853
Se      24.69053632      15.64946115      15.38631390      -0.13101241       0.00631249      -0.10004374
Se       1.64648754      19.86012501      15.35815935      -0.01622842      -0.14088044       0.08253196
Se      13.15031036      19.83160272      15.37405651       0.03469709      -0.00952417      -0.00762436
Se      24.69284662      19.82073100      15.37913335      -0.10825517       0.03273232      -0.08036592
Se       1.65268702       3.13810466      19.72157808      -0.00684257      -0.02572125      -0.00841398
Se      13.17128140       3.14335143      19.73718389      -0.07156436      -0.09137253      -0.01162916
Se      24.67538871       3.13331926      19.73040069      -0.00239563       0.02058716       0.01226265
Se       1.64747024       7.30545867      19.72270280       0.00932580       0.02841962       0.03764332
Se      13.14671789       7.29762696      19.73340937       0.05997561       0.06887175       0.03042992
Se      24.67307567       7.30730076      19.73619618       0.00032629       0.01077579      -0.04393331
Se       1.63478918      11.49389307      19.72851094      -0.01133633      -0.07198344       0.04237879
Se      13.15286954      11.48406033      19.71282295       0.06286743      -0.03920997       0.09372007
Se      24.66543988      11.48904719      19.71381383       0.07909729      -0.05935749       0.09039512
Se       1.65223813      15.66843697      19.72749349      -0.02219659      -0.04943339       0.02275424
Se      13.16012194      15.66451648      19.72652016      -0.03202182      -0.05716383       0.02223315
Se      24.68202298      15.64661412      19.72641202      -0.00786708       0.00506426       0.06672721
Se       1.63306902      19.83084122      19.74276774      -0.00002178      -0.04512669      -0.05248706
Se      13.15536268      19.81470225      19.72036098       0.01471964       0.10155004       0.06303700
Se      24.67729122      19.84585591      19.73512530      -0.00946051      -0.05555534      -0.02805419
Se       9.87044868       1.05167545       2.07266060      -0.02545730      -0.03560235      -0.01186563
Se      21.38667621       1.03442902       2.08914008       0.04665451       0.04391887      -0.01896951
Se      32.88120840       1.05199221       2.07041814       0.15940601      -0.07964414       0.01096337
Se       9.87021424       5.23502591       2.06791428       0.03311547      -0.09162935       0.02944104
Se      21.38365837       5.21679881       2.07919406       0.07504964      -0.02348004      -0.00644779
Se      32.90218192       5.20236416       2.06639861       0.06415964       0.05504857       0.04063952
Se       9.88713098       9.39293966       2.07956646      -0.06463263      -0.00069901      -0.02155005
Se      21.38784485       9.38559692       2.09183128      -0.00756755       0.03734718      -0.10654326
Se      32.90471856       9.38775820       2.08601701       0.03549539      -0.00948857      -0.06370655
Se       9.86709404      13.56033376       2.07515805       0.03798965       0.04412637      -0.02908256
Se      21.39046176      13.56887715       2.09597228       0.02196403       0.02202868      -0.16864722
Se      32.90996297      13.54250049       2.07831858      -0.06793707       0.08303678      -0.03289346
Se       9.87469644      17.74080467       2.07751506      -0.03537206       0.01652795      -0.02515754
Se      21.39017228      17.73984405       2.08118603       0.01939527      -0.00253488      -0.04953507
Se      32.90117967      17.73089331       2.10529340      -0.04846226       0.01174498      -0.10643641
Se       9.86715907       1.04501504       6.42120286       0.04238545       0.00065119       0.05999864
Se      21.39162375       1.03468136       6.43173474       0.00173020      -0.00311824       0.02008298
Se      32.91705113       1.04873371       6.44184356      -0.07236819      -0.02208935      -0.01739115
Se       9.85660559       5.23647171       6.42424065       0.16975471      -0.11280631       0.04950179
Se      21.40574467       5.22831819       6.44193279      -0.05979802      -0.06750726      -0.03611041
Se      32.89805063       5.21961865       6.43145025       0.06829308      -0.04395105       0.01640718
Se       9.87460804       9.38969317       6.41577336       0.01141554       0.00681418       0.08389802
Se      21.40167690       9.39138082       6.43131146      -0.13366062      -0.03368082      -0.00075127
Se      32.90099721       9.39577649       6.42722190       0.05287936      -0.03294593       0.03640182
Se       9.85176589      13.57035233       6.44135050       0.12540899      -0.02632750      -0.03421776
Se      21.38846274      13.55480201       6.43704882       0.01136531       0.06276073      -0.02603506
Se      32.89195516      13.55600873       6.42865249       0.05066234       0.01894531       0.06827704
Se       9.88275703      17.73674406       6.43168080      -0.01112190       0.01752179       0.02953305
Se      21.41000599      17.74389480       6.43954941      -0.12122698      -0.01453225      -0.02988868
Se      32.90290348      17.73440646       6.41429540       0.07142157      -0.05642633       0.08788048
Se       9.88400505       1.04849671      10.79547169      -0.01691606      -0.02731303      -0.00402642
Se      21.38908680       1.05137506      10.78171625      -0.01382579      -0.03871918       0.06263609
Se      32.90070167       1.03265059      10.81497844       0.01227791       0.02618625      -0.08802761
Se       9.88307420       5.19607583      10.78212573       0.02126963       0.07910541       0.06730561
Se      21.38913561       5.21337835      10.78401953       0.01161472      -0.00383144       0.06837022
Se      32.92604811       5.22122815      10.80201151      -0.11135836      -0.03654213      -0.01713878
Se       9.86739749       9.39941464      10.79345902       0.00458286      -0.04525674       0.00459962
Se      21.38762563       9.39830191      10.78097337       0.08250778      -0.05609039       0.07656537
Se      32.92257076       9.39401579      10.81007279      -0.09899120      -0.02177630      -0.09884242
Se       9.86356345      13.55704938      10.78564435       0.02668797       0.05031564       0.04725284
Se      21.39296204      13.56694087      10.79261923      -0.04694892       0.00653251       0.03900274
Se      32.89645979      13.55361507      10.79677851       0.08318762       0.09557867      -0.03363450
Se       9.86966177      17.73351410      10.81273424       0.00821360       0.02618132      -0.02818281
Se      21.38963581      17.75307060      10.79193083      -0.00516148      -0.09531041       0.01150437
Se      32.90904825      17.73981541      10.78028712      -0.01915444       0.00393671       0.05518927
Se       9.88860103       1.04266208      15.16583141      -0.10873295      -0.00688522      -0.05561260
Se      21.38293878       1.04236517      15.14969870       0.01799229       0.03254138       0.05218784
Se      32.91896047       1.04712771      15.16203776      -0.05775028      -0.03449388      -0.03454623
Se       9.88789948       5.22966617      15.16602065      -0.06297116      -0.04810793      -0.03052055
Se      21.37624179       5.21114596      15.14832835       0.05162603       0.04146212       0.01072593
Se      32.91387582       5.21980927      15.14446210      -0.06003154       0.00904576       0.08825380
Se       9.87243020       9.37725077      15.15783566      -0.00524506       0.03695834       0.00916674
Se      21.37390534       9.39748017      15.16214685       0.06059850      -0.04203117      -0.03555083
Se      32.92567997       9.40067063      15.15413808      -0.09720562      -0.03524213       0.02770625
Se       9.88249834      13.55230440      15.14874250      -0.01016852       0.08028460       0.05534698
Se      21.39379049      13.54469854      15.15799562       0.02199109       0.10457190      -0.01028473
Se      32.89639785      13.56729410      15.14758986       0.12328943       0.01967624       0.05617558
Se       9.87856012      17.74056345      15.17237089      -0.02697291      -0.01803243      -0.06818616
Se      21.39052641      17.73268375      15.15589837       0.01500258       0.05824222       0.01267037
Se      32.89315812      17.74443155      15.16426573       0.09559372      -0.01144787      -0.01145412
Se       9.89900960       1.03779525      19.51679316      -0.06311103       0.01529954       0.03028405
Se      21.38470148       1.04613475      19.52328801       0.00422393      -0.00760935      -0.02547722
Se      32.90606673       1.05487687      19.51330131      -0.03227150      -0.07528674       0.06385684
Se       9.88417938       5.22348773      19.51935081      -0.07533732      -0.04454476      -0.01405287
Se      21.38730970       5.24236943      19.51130102       0.01877594      -0.11270295       0.00352126
Se      32.90957981       5.21060056      19.53732731      -0.01249170       0.06498889      -0.07867802
Se       9.88318591       9.38540840      19.52459706      -0.02352019       0.05532387      -0.04631072
Se      21.39303602       9.38702565      19.52705275      -0.02682946       0.07160793      -0.03155589
Se      32.91049354       9.39434888      19.51905191       0.01621898      -0.00102336      -0.05893017
Se       9.87862819      13.56857491      19.52006204      -0.02940775      -0.06116028      -0.00314991
Se      21.38404890      13.58321870      19.50896691       0.04396555      -0.09178601       0.07878702
Se      32.91087684      13.56307863      19.53706658      -0.05268304      -0.00180327      -0.08021052
Se       9.86528282      17.73301754      19.50977293       0.07767402       0.02841515       0.01708693
Se      21.39369371      17.72663967      19.51468582       0.01197945       0.03807663       0.04614308
Se      32.88507682      17.74277439      19.51446896       0.10855933      -0.01452059       0.04278151
Sn       7.10944204       1.05486971       1.76934309       0.04213237      -0.02917602       0.04535447
Sn      18.64843347       1.03700321       1.79843547      -0.02659972       0.00098300      -0.06217301
Sn      30.16410096       1.03393314       1.77324893      -0.14314085       0.05023369       0.04739872
Sn       7.13037786       5.21547897       1.78072634      -0.03066060      -0.00417320       0.06485345
Sn      18.65318642       5.21061587       1.78333270      -0.08170568       0.02964457       0.01776437
Sn      30.16615173       5.22619393       1.78082363      -0.04259075      -0.00996528       0.02341810
Sn       7.12143355       9.37480374       1.77185731       0.04681757       0.07049952       0.05818351
Sn      18.64364762       9.39081307       1.78316903      -0.00503340      -0.01070440      -0.02480583
Sn      30.16699799       9.38031866       1.78005796      -0.06965524       0.02774164       0.02569826
Sn       7.12620972      13.55923943       1.79673453      -0.01345479       0.01575359      -0.05355190
Sn      18.64954990      13.56918237       1.80036208      -0.08303900       0.04603257      -0.06161609
Sn      30.14161650      13.56620377       1.78608313       0.08398971      -0.03638264      -0.01530393
Sn       7.11517706      17.74337732       1.77135394       0.03437357      -0.03341118       0.00818486
Sn      18.64736960      17.75094852       1.78514309      -0.04992158      -0.00676304      -0.00736530
Sn      30.13807747      17.73070224       1.78806686       0.06873221       0.01170175      -0.00720580
Sn       7.12453460       1.01707359       6.15595194      -0.00565535       0.10851738      -0.04749533
Sn      18.64183060       1.03582287       6.15347320       0.01183900       0.00494014      -0.01131599
Sn      30.14983005       1.03712909       6.14710717       0.05945662       0.03528491      -0.01442110
Sn       7.14213299       5.23433863       6.14712076      -0.17001244      -0.06934338      -0.01781264
Sn      18.64508789       5.22601774       6.13095380       0.00666425      -0.02773919       0.02247393
Sn      30.16304693       5.21076202       6.14670842      -0.06036400       0.00513853      -0.02314405
Sn       7.12204793       9.39720398       6.14470467       0.02202897       0.02924550      -0.02703584
Sn      18.60973373       9.39398081       6.14994517       0.16374810       0.00822597      -0.02248978
Sn      30.16106473       9.39116603       6.15994526      -0.03123182       0.00361108      -0.06078813
Sn       7.12743634      13.57065777       6.15396856      -0.06095687      -0.03912645      -0.05737643
Sn      18.64408996      13.55730086       6.11914027      -0.04292839       0.05068803       0.12204322
Sn      30.15183424      13.57389049       6.13999268      -0.00359698      -0.02917952      -0.03405107
Sn       7.13233439      17.74185746       6.15640430       0.01376101      -0.03738701      -0.02336269
Sn      18.63751186      17.74504632       6.14858249       0.06926318      -0.03095741      -0.01342602
Sn      30.17162147      17.72330380       6.13893956      -0.06488914       0.05684921       0.01598252
Sn       7.13280777       1.05947258      10.50702824      -0.02074162      -0.02766412      -0.01174826
Sn      18.63753699       1.05158480      10.51331455       0.01661001      -0.00530521       0.02211157
Sn      30.15300883       1.04731669      10.51643279       0.00570905      -0.04247152      -0.07273736
Sn       7.14322720       5.22552880      10.50506891      -0.05327280      -0.07364760       0.02219474
Sn      18.63992328       5.22367672      10.50347079       0.00588776      -0.00358192      -0.01693090
Sn      30.15850186       5.20752399      10.51759809       0.07645166       0.02752456      -0.05057505
Sn       7.11292076       9.38787078      10.50560345       0.03639800       0.05741682      -0.00521922
Sn      18.66037390       9.38796506      10.49796736      -0.09234070       0.02075886       0.04329979
Sn      30.15109728       9.40878087      10.47650405       0.05760219      -0.07906531       0.06281025
Sn       7.11429523      13.59359392      10.51053634       0.01095385      -0.12576086      -0.00578925
Sn      18.62940418      13.56586185      10.50530207       0.07611293      -0.03993390      -0.02890838
Sn      30.16506670      13.58467605      10.50851304      -0.08855000      -0.12089244       0.02313409
Sn       7.11892473      17.74824102      10.49764499       0.00845723      -0.04123546       0.03792273
Sn      18.63013066      17.72277109      10.48897624       0.03131820       0.06117465       0.05676854
Sn      30.14764100      17.72859228      10.50775989       0.03123096       0.06720575      -0.02480356
Sn       7.11232859       1.01257695      14.85529228       0.07975104       0.11031640       0.01018650
Sn      18.63574543       1.03795912      14.88092665       0.00676537      -0.02324219      -0.07337579
Sn      30.15047002       1.05282285      14.86554157       0.03892128      -0.05411265       0.01710963
Sn       7.12389956       5.20974895      14.86514357       0.05446171       0.00464794       0.00073651
Sn      18.63281307       5.21980300      14.86336890      -0.04123193       0.01785804       0.00745825
Sn      30.14715917       5.22802170      14.86999981       0.08399138      -0.03567723      -0.00890577
Sn       7.11984198       9.39364682      14.86489318       0.02355685       0.01496942      -0.00532722
Sn      18.63178812       9.39289686      14.85952128      -0.01381894      -0.01022875       0.00452823
Sn      30.14715611       9.37596422      14.86214533       0.10086472       0.07319585       0.00667973
Sn       7.12999232      13.55933444      14.89093849       0.01743093       0.02130247      -0.07514505
Sn      18.64932089      13.57932434      14.87368383      -0.00541137      -0.03631983      -0.04743266
Sn      30.17513410      13.55841101      14.84012403      -0.12054526       0.00068952       0.08847091
Sn       7.11986135      17.74595236      14.86724657       0.02231814      -0.02169527      -0.00243953
Sn      18.64321876      17.75357927      14.86955198      -0.00966605      -0.05435460      -0.02664504
Sn      30.16459458      17.73097455      14.85477746      -0.11412950       0.03925186       0.04263888
Sn       7.14046375       1.04502263      19.22060299       0.02047875       0.02433292      -0.01127947
Sn      18.63425009       1.03752238      19.21974569      -0.01103751       0.01813857       0.05072975
Sn      30.14377397       1.02900941      19.22488524       0.06384496       0.08149788       0.03114140
Sn       7.11839335       5.22917435      19.22976605       0.05992440      -0.04373471      -0.01907276
Sn      18.64311721       5.21067155      19.22562500      -0.02951272       0.06173850      -0.02763813
Sn      30.16021546       5.22526471      19.22589636       0.00423372      -0.05855266      -0.00685750
Sn       7.13511385       9.39227179      19.23476375      -0.01641849      -0.01047967      -0.03276319
Sn      18.63556551       9.37406601      19.22951887       0.02936980       0.06386924      -0.04621932
Sn      30.16385869       9.39794537      19.23105715      -0.03977512       0.01504754      -0.02262868
Sn       7.12083674      13.55821357      19.23235256       0.02605064       0.04706497      -0.00906662
Sn      18.64472850      13.56067204      19.23792952      -0.02388203      -0.02116377      -0.04611328
Sn      30.14777679      13.56044580      19.24319953       0.05819760       0.00945846      -0.10521530
Sn       7.13300843      17.73679008      19.22970909      -0.07013600       0.00522104      -0.00548105
Sn      18.64201195      17.71291404      19.21777054       0.00493999       0.05517059       0.05847028
Sn      30.15609698      17.73680406      19.22930631      -0.06858510       0.01382996      -0.03673622
Sn       4.40235224       3.12784283       2.56883181      -0.01578446       0.06407473       0.02385112
Sn      15.91044736       3.12779195       2.57784772      -0.03977313       0.00555977       0.01732461
Sn      27.42042252       3.15347656       2.55700131       0.05059703      -0.07303543       0.04779571
Sn       4.38717408       7.30511043       2.57159693       0.02339150      -0.03323158       0.01164573
Sn      15.91619710       7.31327990       2.57893081      -0.04355160      -0.08381077      -0.00879502
Sn      27.42063352       7.30402776       2.57836049       0.02295224       0.02664318       0.00677887
Sn       4.39027369      11.47735647       2.58193285       0.02554929      -0.05179728      -0.08035082
Sn      15.91473096      11.46693386       2.56890172      -0.05463263       0.04835891       0.02789934
Sn      27.40585508      11.48790044       2.58191159       0.05434638      -0.07619323      -0.03420031
Sn       4.39611010      15.63903062       2.59725784      -0.02030140       0.03563741      -0.09687966
Sn      15.90111033      15.65500766       2.58795220       0.06216322      -0.02614838      -0.02617920
Sn      27.41347046      15.64786236       2.58120007       0.01797478       0.06156033       0.00385862
Sn       4.41963215      19.83042599       2.59547197      -0.14822865       0.00295339      -0.04988753
Sn      15.91925557      19.83109484       2.56951640      -0.04258036       0.01626042       0.02325765
Sn      27.43393780      19.81243364       2.59541711      -0.03357594       0.11509936      -0.02808496
Sn       4.39305747       3.10455595       6.93710717      -0.05340631       0.12043719      -0.04663735
Sn      15.91373832       3.12868795       6.94766229      -0.01856800       0.04982699      -0.05382657
Sn      27.41484002       3.11799836       6.93979778       0.04636242       0.04125607      -0.02835483
Sn       4.39137308       7.30166348       6.95278515      -0.01290675      -0.00825430      -0.05184891
Sn      15.89869677       7.30827898       6.94119193       0.06579283      -0.04532727       0.01565608
Sn      27.40777310       7.29195702       6.94063134       0.10815961       0.01077773      -0.01627583
Sn       4.41086942      11.48502916       6.92325589      -0.08611261      -0.02482705       0.07436568
Sn      15.87609396      11.48656700       6.93955010       0.19411117       0.01740349       0.01309263
Sn      27.43475292      11.47042929       6.94401436      -0.07125262       0.01859495       0.02751089
Sn       4.39951916      15.64885097       6.93625138      -0.07531741       0.03782714       0.04773081
Sn      15.90745147      15.65875237       6.94036889       0.00797711      -0.04094561      -0.01383141
Sn      27.43308022      15.64870625       6.92722828      -0.06906224       0.00464521       0.07622133
Sn       4.41082718      19.82136841       6.93482781      -0.10260366      -0.02194365       0.01552124
Sn      15.90654081      19.82808656       6.93664540      -0.03210767      -0.00678665       0.01491582
Sn      27.42316592      19.82701712       6.94226043       0.02599247      -0.02489232      -0.02517528
Sn       4.36748255       3.14986695      11.30014323       0.10967822      -0.08374092      -0.00950151
Sn      15.91300507       3.11727717      11.29690611      -0.03164642       0.08083172       0.02267082
Sn      27.41661710       3.14575542      11.29575798       0.00887762      -0.08153193       0.03490858
Sn       4.39863822       7.29864312      11.29708992      -0.07860260       0.01252202      -0.02553035
Sn      15.90474334       7.31798578      11.28271759       0.03086819      -0.08361460       0.05288344
Sn      27.41018363       7.28567427      11.29074109       0.03574231       0.05264791       0.03749526
Sn       4.38294142      11.46309165      11.29427464       0.07006954       0.06024159       0.01600927
Sn      15.88705170      11.46905658      11.31362032       0.06457600       0.02193256      -0.03219238
Sn      27.42737614      11.48111114      11.29158833      -0.03757543       0.01013033       0.05562279
Sn       4.37569657      15.64193404      11.30118402       0.03537579       0.07337253       0.03177067
Sn      15.91588061      15.66234928      11.30792224      -0.01611203      -0.03408343      -0.03609047
Sn      27.41596469      15.65357110      11.29840269      -0.00742353      -0.02318282      -0.02953611
Sn       4.38904552      19.84778602      11.28399611       0.02143779      -0.06203358       0.08498658
Sn      15.90485207      19.83953223      11.28695720       0.00310956      -0.05495272       0.02341964
Sn      27.41690279      19.82212436      11.29938322       0.00218720       0.02905529      -0.01156339
Sn       4.37509785       3.13701104      15.66938287       0.06726276      -0.03268145      -0.02825980
Sn      15.91228259       3.12235445      15.66358510      -0.04152912       0.06722641      -0.05394991
Sn      27.41434586       3.12773222      15.68425467       0.06567839      -0.03966151      -0.09033022
Sn       4.39201438       7.29327206      15.66452335       0.03427833       0.02686884       0.01434448
Sn      15.89368088       7.29315722      15.65230876       0.00380488       0.04161438       0.00198951
Sn      27.41889717       7.31451701      15.66850398       0.00974041      -0.07806880      -0.06436373
Sn       4.39628737      11.46824722      15.65730685       0.03919232       0.04796127       0.02440235
Sn      15.90991885      11.47295326      15.65993633       0.00886960      -0.00218359       0.02821686
Sn      27.42775385      11.47574874      15.66498059      -0.01586675       0.02931388      -0.01667609
Sn       4.40698471      15.65160702      15.67451337      -0.04724150       0.01564042      -0.01215465
Sn      15.91279254      15.63865318      15.65169862       0.00878311       0.06904800       0.04027680
Sn      27.41500430      15.64477726      15.66181710       0.11605612       0.02144423      -0.03304161
Sn       4.39720386      19.83996633      15.66580175       0.00553480      -0.09450620      -0.04569857
Sn      15.90274205      19.80659233      15.66342589      -0.00813636       0.05173277       0.01065473
Sn      27.42359796      19.82924403      15.68378240       0.05470897      -0.00301279      -0.06017916
Sn       4.40346339       3.13890879      20.01420310      -0.03500174       0.01390662       0.01473630
Sn      15.90206889       3.13010974      20.01606980       0.07241101      -0.01970312       0.00251258
Sn      27.42834491       3.13462727      20.01294080      -0.01693060      -0.00744931       0.04761576
Sn       4.40302559       7.30617043      20.00653316      -0.03351737       0.00059799       0.04991706
Sn      15.90668541       7.30795939      20.03355180      -0.00960709      -0.01838437      -0.04877194
Sn      27.41996550       7.31342671      20.02569529       0.00370100       0.02694669       0.01176952
Sn       4.37790688      11.46508480      20.03504947       0.05136350       0.07334083      -0.00810253
Sn      15.91915868      11.48246556      20.03878094      -0.05166025      -0.00814792      -0.02860276
Sn      27.43390636      11.48607275      20.01471076      -0.05965129      -0.01827613       0.01253553
Sn       4.40837171      15.65868862      20.01996549      -0.02124059       0.00946425       0.03385090
Sn      15.90051614      15.65589344      20.00711328       0.02641593       0.01595994       0.03322343
Sn      27.43033699      15.64378990      20.02752996       0.00031756       0.03213125      -0.03658539
Sn       4.38584122      19.82477056      20.01625478      -0.01661422       0.02162816       0.01958150
Sn      15.90558655      19.84630854      20.03767447       0.01577604      -0.09246825       0.00410316
Sn      27.42688505      19.82716180      20.03226589      -0.03984338       0.02621186       0.01592008
Sn      10.16042784       3.12276000       3.96219731      -0.08525593       0.05484424      -0.03962987
Sn      21.64704997       3.14228921       3.98362194       0.06874215      -0.04509760      -0.03416307
Sn      33.18221180       3.10980808       3.96906061       0.05056867       0.04686694      -0.00460152
Sn      10.14008724       7.29851383       3.96923746       0.08409081       0.04358065      -0.02875024
Sn      21.66781509       7.30026624       3.95647564       0.00745557       0.01250172       0.06428363
Sn      33.18266933       7.30105267       3.95187933      -0.06286728      -0.03631892       0.02258839
Sn      10.14580250      11.48263239       3.96119067       0.07971431      -0.02696620      -0.00386127
Sn      21.65113447      11.48912711       3.93558359       0.11052702      -0.07452423       0.19046452
Sn      33.17694732      11.47303448       3.96445349      -0.01276475       0.01364506       0.03543461
Sn      10.15474475      15.66459325       3.95584765      -0.06403595      -0.02678685       0.01241991
Sn      21.67113537      15.65528379       3.94585631      -0.06352184       0.02354557       0.12416643
Sn      33.20041637      15.63893785       3.96716667      -0.07446851      -0.02952278      -0.01714771
Sn      10.15302773      19.83017111       3.95802593       0.02052442      -0.00900625       0.00679873
Sn      21.67354208      19.81181107       3.96231341      -0.07685471       0.04168542       0.04097992
Sn      33.17577222      19.82064176       3.96725918       0.08477920       0.03425295      -0.00201454
Sn      10.15990292       3.12762563       8.33188239      -0.05300274       0.00647514      -0.05534208
Sn      21.66576696       3.12213086       8.32149606      -0.04781367      -0.01045619       0.01338024
Sn      33.17841611       3.12409159       8.32836041      -0.02900576       0.02670755      -0.01207090
Sn      10.15147459       7.28924083       8.30756032       0.01029715       0.08230471       0.03164479
Sn      21.66951640       7.29699446       8.32709599      -0.00192098       0.08141880      -0.00249107
Sn      33.18922029       7.29243780       8.30996021      -0.02034425       0.03828813       0.02003499
Sn      10.16587245      11.48275217       8.31988317      -0.10946784      -0.03725530       0.00126314
Sn      21.65593015      11.47413206       8.31216986       0.00255691      -0.01188613       0.02485024
Sn      33.19024509      11.47146895       8.33501093      -0.00862745       0.00007939      -0.05544192
Sn      10.14512184      15.64289210       8.31981256       0.11113465       0.05093609       0.04478225
Sn      21.63902788      15.65211792       8.32237439       0.15030813      -0.03756508       0.00506970
Sn      33.18965840      15.63446255       8.33569424      -0.04781443       0.03716404      -0.07920421
Sn      10.15733412      19.83993518       8.32354837      -0.07492099      -0.04524249      -0.02987089
Sn      21.67540852      19.81270230       8.33120606      -0.08619534       0.05273137       0.00097442
Sn      33.17369934      19.81090073       8.31283418      -0.01523865       0.01526724       0.00147836
Sn      10.14918344       3.12281519      12.68894020      -0.01627888       0.02051324       0.00773759
Sn      21.64718718       3.10978721      12.69890333       0.07785124       0.05717996      -0.04917094
Sn      33.19044897       3.12056522      12.68514946      -0.03396950       0.03716212       0.02960793
Sn      10.15932320       7.30933933      12.68666169      -0.05572522      -0.01205495      -0.03860176
Sn      21.67622109       7.29784020      12.68549124      -0.10548918       0.01353842      -0.05346066
Sn      33.18123249       7.30241970      12.68128141      -0.01834639       0.00831359       0.05492453
Sn      10.14985681      11.47958054      12.67469518       0.01086568      -0.00358205       0.01763036
Sn      21.67328751      11.46947261      12.68299713      -0.01262314       0.02195491      -0.02564313
Sn      33.17845817      11.48281750      12.66398842       0.08702226      -0.02764559       0.10529251
Sn      10.15803723      15.64655570      12.69737909      -0.09081569      -0.00515042      -0.05021606
Sn      21.66048790      15.65283717      12.70431732      -0.01131321       0.00910856      -0.09387002
Sn      33.17863759      15.66571410      12.68556991       0.02977690      -0.02908331      -0.02364693
Sn      10.15328232      19.82811433      12.69365798       0.06703338      -0.02032804      -0.03194376
Sn      21.65841424      19.81757426      12.67879370       0.02165671       0.05358882       0.00110676
Sn      33.18240808      19.82520656      12.69228221      -0.00063447      -0.02782700      -0.02410835
Sn      10.16217545       3.12129980      17.03894385      -0.00637163       0.05982874       0.01697925
Sn      21.65090716       3.15136191      17.04933004       0.04464704      -0.05943065      -0.02599357
Sn      33.18620899       3.11765610      17.04627164      -0.03895926       0.06995865      -0.00238615
Sn      10.15422061       7.30261975      17.05704040      -0.03746437      -0.00810759      -0.01632309
Sn      21.68838786       7.29567670      17.03606247      -0.10015287       0.03423956      -0.00005304
Sn      33.17263341       7.32120932      17.05670689       0.04299574      -0.06311881      -0.09428570
Sn      10.14777285      11.47960206      17.03811790       0.03764254      -0.02183030      -0.00376736
Sn      21.67416982      11.47543745      17.04368257      -0.06466146      -0.01834439       0.02765282
Sn      33.18749887      11.47735651      17.04393368      -0.06716613       0.02794499      -0.04110000
Sn      10.14923388      15.66127916      17.06274827       0.02722496      -0.05612423      -0.04132884
Sn      21.67112441      15.66135875      17.04428480      -0.00364794      -0.03979878       0.01259277
Sn      33.17433299      15.65986547      17.04799575      -0.03012891      -0.04634672      -0.01506781
Sn      10.13490185      19.82413405      17.04545437       0.11480569       0.00662784       0.03180313
Sn      21.66016497      19.84223210      17.05108173       0.00213282      -0.04758165      -0.00875400
Sn      33.19514272      19.83004900      17.04709722      -0.05501828       0.02230454       0.02536542
Sn      10.13976215       3.13117748      21.40751776       0.04062021       0.00477512       0.00192319
Sn      21.65159841       3.12566291      21.40415439       0.02661204       0.04810076       0.00462297
Sn      33.18554577       3.13567169      21.40157404      -0.00873076      -0.04131027       0.02671901
Sn      10.15381683       7.30332653      21.37869102       0.02227286      -0.01627404       0.12050526
Sn      21.66042253       7.31593721      21.39056916       0.07169479      -0.02058571       0.06534128
Sn      33.18253788       7.32099994      21.39978109       0.02393216      -0.06017036       0.04760263
Sn      10.14914962      11.46619630      21.42365953      -0.05883044       0.03399854      -0.01651186
Sn      21.66443623      11.47970273      21.42093022      -0.04074135       0.00787582      -0.09778411
Sn      33.18802576      11.47048018      21.40091444      -0.02335425       0.02710431       0.06478205
Sn      10.15407744      15.64708439      21.38621479       0.00125843       0.00496714       0.05837803
Sn      21.66473714      15.63852348      21.42355004      -0.00590962       0.07013241      -0.07537581
Sn      33.18317885      15.64427385      21.40040090      -0.02032318       0.05189270       0.04413158
Sn      10.13023416      19.81642013      21.41755045       0.07525939       0.01055427      -0.02401918
Sn      21.68758741      19.83467871      21.40646679      -0.12381545      -0.04728419      -0.03643826
Sn      33.17709138      19.81784979      21.42798488      -0.00127048       0.04527656      -0.07445073
Sn       1.36436441       1.06516991       0.41279161       0.04418713      -0.07493219      -0.04270020
Sn      12.86498536       1.03735409       0.39216596       0.09952534       0.03963142       0.04636736
Sn      24.39773628       1.04341047       0.42881881      -0.03731776       0.01312650      -0.07639132
Sn       1.35547962       5.22039245       0.40502149       0.04710788      -0.01001859      -0.01301648
Sn      12.88237760       5.21920456       0.38840833      -0.01869124      -0.00777313       0.04122943
Sn      24.39959960       5.22321674       0.40213242       0.00270459      -0.00143952      -0.03088223
Sn       1.37195391       9.40631797       0.40822608      -0.01976190      -0.08046093      -0.02792342
Sn      12.88310627       9.38047431       0.39285636      -0.03576478       0.03126921       0.07618753
Sn      24.39633843       9.39471535       0.39407309       0.01434418      -0.07639694      -0.01710959
Sn       1.35689457      13.55439905       0.38234464       0.03259630       0.02020382       0.07066931
Sn      12.88004381      13.55158438       0.38885116       0.05504956       0.03520963       0.07198358
Sn      24.39459572      13.55292186       0.40265394       0.00921825       0.05920862      -0.03850905
Sn       1.37365413      17.73487590       0.39448614      -0.03586734       0.01749561       0.00813451
Sn      12.88776762      17.73323022       0.39102908      -0.04550222       0.04423769       0.04878951
Sn      24.41049972      17.74921205       0.40487191      -0.06089316      -0.01927810      -0.06742564
Sn       1.37550835       1.02424083       4.77349865      -0.11848093       0.06469647      -0.03300302
Sn      12.88631394       1.05412143       4.76383191       0.04533440      -0.01987137       0.00589049
Sn      24.39902399       1.04126052       4.76363174       0.02438041       0.00656992       0.02098300
Sn       1.36313442       5.22678152       4.74409573       0.05184128      -0.04057662       0.02717413
Sn      12.87697756       5.23855099       4.75369949       0.11071920      -0.06382620       0.02559000
Sn      24.39614790       5.20927694       4.76331875       0.01569693      -0.00462299      -0.00982190
Sn       1.35888925       9.39033578       4.76844896       0.02198188       0.03227585      -0.05514953
Sn      12.87540569       9.40007801       4.76818259       0.00643493      -0.01856463      -0.07312160
Sn      24.40908430       9.39359730       4.79237289      -0.07587667       0.02386869      -0.11308741
Sn       1.37679724      13.56952981       4.75120105      -0.04614141      -0.02229717       0.04786150
Sn      12.88142273      13.58054430       4.77705564       0.06138892      -0.00691065      -0.10460403
Sn      24.41331803      13.57413296       4.74740369      -0.11156913      -0.02062428       0.07395966
Sn       1.37112352      17.72795615       4.74508558      -0.00160291       0.04623128       0.02069068
Sn      12.88478491      17.74560217       4.76899407      -0.05017795       0.01403027      -0.05300935
Sn      24.40350610      17.74568603       4.75011377      -0.01125448      -0.04380226       0.07244130
Sn       1.36520213       1.02894245       9.10103048       0.02026584       0.08713588       0.00854902
Sn      12.88979975       1.03648237       9.12978916      -0.08657706       0.05433683      -0.06534241
Sn      24.40961822       1.03782044       9.12696729      -0.07723382       0.07627445      -0.04121080
Sn       1.35964033       5.19964397       9.12229727      -0.01255022       0.10023309      -0.02637164
Sn      12.87768458       5.21370186       9.14081761      -0.01049070       0.02143077      -0.11151106
Sn      24.38327617       5.22193147       9.11111610       0.04900019       0.01195771       0.04256201
Sn       1.37533451       9.39517621       9.12485762      -0.04766223      -0.02773489      -0.00200946
Sn      12.87294442       9.38453602       9.13033668       0.03896242      -0.01154954      -0.03195530
Sn      24.41624272       9.39699497       9.11208997      -0.11715883       0.00302421       0.02599263
Sn       1.36964129      13.59055575       9.12208840       0.01284133      -0.06600544      -0.03242499
Sn      12.89701173      13.55887774       9.12064331      -0.05299527       0.09113253       0.00695676
Sn      24.40473039      13.57025432       9.11340029      -0.02232603      -0.01141574      -0.02602312
Sn       1.35815673      17.75025302       9.13297968       0.03485546      -0.04403450      -0.06319238
Sn      12.89751476      17.75840948       9.12241037      -0.07924976      -0.05994265       0.00834922
Sn      24.39542275      17.75388008       9.12819487       0.09253293      -0.05683498      -0.02252114
Sn       1.35642735       1.03367726      13.48708736       0.02950876       0.09438070      -0.03671912
Sn      12.88062057       1.04374931      13.49289339      -0.01219295       0.04197258       0.01456609
Sn      24.40612511       1.05731235      13.46285269      -0.01922406      -0.05536719       0.07997790
Sn       1.36878588       5.22504964      13.46690220       0.05976611      -0.01040313       0.03285141
Sn      12.87584436       5.20969790      13.48238504       0.06368951       0.00160036      -0.01234999
Sn      24.41481328       5.23832865      13.47402518      -0.08630914      -0.09209813      -0.02985446
Sn       1.37151747       9.39777987      13.48604431      -0.00531971      -0.00815892       0.00204414
Sn      12.88638312       9.39522932      13.49904376      -0.03806672      -0.02203179       0.00974374
Sn      24.40955941       9.38159036      13.49012527      -0.09014796       0.03612659      -0.01052897
Sn       1.37517563      13.56943071      13.49348230      -0.02744879       0.00298354      -0.04501773
Sn      12.88427406      13.56828571      13.48338046       0.03745282       0.03269476       0.01206634
Sn      24.37835230      13.56547705      13.47548555       0.13033552       0.00249762       0.04042518
Sn       1.35438742      17.75471036      13.48721013       0.05538720      -0.03491844       0.01298566
Sn      12.88209501      17.73472214      13.48512975       0.04247534       0.01010603      -0.00938105
Sn      24.40844910      17.73210052      13.48211977       0.00083336       0.02399805       0.05482077
Sn       1.37493257       1.02465360      17.84269624      -0.02804545       0.06795041       0.04550274
Sn      12.87810041       1.04267532      17.83825565       0.06141823       0.01462344       0.02143285
Sn      24.39991099       1.06324989      17.84003271      -0.03814394      -0.04375807       0.00321773
Sn       1.36916901       5.23805022      17.83777178      -0.05960793      -0.06960743      -0.00189374
Sn      12.90054007       5.21815598      17.86109090      -0.09943336      -0.00678313      -0.08217760
Sn      24.40603675       5.22117384      17.84261563      -0.03223404      -0.02447009       0.02215514
Sn       1.36001149       9.39294981      17.85224555       0.06152607      -0.00460827      -0.03611910
Sn      12.88226221       9.38902567      17.84076411      -0.00833656      -0.00304264      -0.01111709
Sn      24.40845951       9.40444351      17.83660043      -0.02183472      -0.04179456       0.01365629
Sn       1.35956602      13.57007462      17.85854726       0.03353753       0.04153362      -0.07001063
Sn      12.89385322      13.55376251      17.84063117      -0.05006870       0.06391571      -0.02647666
Sn      24.38922870      13.56360591      17.85931603       0.00869423       0.03241345      -0.09278766
Sn       1.35202589      17.72418152      17.83498639       0.07362658       0.06829872       0.03954284
Sn      12.88526643      17.74657772      17.84764642      -0.02333410      -0.02501812      -0.06468348
Sn      24.41029159      17.72273932      17.85515530      -0.05439306       0.09851283      -0.01988692
600
Lattice="34.548424260000004 0.0 0.0 0.0 20.870445700000005 0.0 0.0 0.0 21.8055194" Properties=species:S:1:pos:R:3:forces:R:3 mlfcs_configuration_id=3 mlfcs_sampling_method=gaussian pbc="T T T"
Se       4.11302282       1.05049063       0.09234177      -0.05476711      -0.03253903       0.05276424
Se      15.63233476       1.04553840       0.11713354       0.06577537      -0.00585060      -0.03797534
Se      27.13257407       1.04348322       0.09472367       0.06418533       0.00639941      -0.00671422
Se       4.12119874       5.22503700       0.11844773      -0.06245779      -0.03530403      -0.04434037
Se      15.62693490       5.22653710       0.11918504       0.05318463      -0.03954070      -0.00837890
Se      27.13199415       5.22338828       0.11516114       0.05544181      -0.00742662      -0.07230172
Se       4.11355651       9.37924624       0.11500558       0.01162885       0.07576029      -0.08084817
Se      15.62029011       9.38957046       0.10517479       0.06429480      -0.04094592      -0.00382471
Se      27.15558200       9.38508766       0.09873019      -0.02957064       0.04114554       0.02513784
Se       4.11713293      13.57550702       0.12845053      -0.02311718      -0.06136691      -0.08839397
Se      15.61721039      13.56859653       0.09471068       0.09901687       0.02070792       0.04815112
Se      27.15861473      13.55605767       0.09882954      -0.06959481       0.04338895       0.03074866
Se       4.11025107      17.73877026       0.10880800      -0.00529595      -0.02329518       0.00503267
Se      15.63712221      17.73947458       0.09227712      -0.02431115       0.03953922       0.08156399
Se      27.15570448      17.73900266       0.11719337      -0.00740971      -0.01073268      -0.05835522
Se       4.10906639       1.02715294       4.46633965       0.04118401       0.08949412       0.00985156
Se      15.64524472       1.04478511       4.46468321      -0.01791673      -0.01640254       0.04761788
Se      27.13972315       1.06075336       4.45638388       0.08524520      -0.09052949       0.05150489
Se       4.10888983       5.22296517       4.44811970       0.04845248      -0.00715926       0.09016716
Se      15.64503110       5.22350676       4.47567222      -0.05761573      -0.04882388      -0.06565655
Se      27.15400779       5.21565360       4.45604842      -0.06287220       0.02949821       0.09075834
Se       4.11474302       9.38160161       4.47154146       0.04789758       0.06034343      -0.00171520
Se      15.64035300       9.40612206       4.47039758      -0.00984540      -0.03850349      -0.04968243
Se      27.15767237       9.38838252       4.46189714      -0.06997330       0.05036945       0.02439184
Se       4.12088050      13.56157838       4.46937176       0.01692180       0.00328016      -0.03491371
Se      15.62167328      13.55662683       4.47303400       0.06694390       0.05765099      -0.05392091
Se      27.15729352      13.55558655       4.47338605       0.01166438       0.01771281      -0.02412078
Se       4.11081642      17.73969730       4.48084935       0.11674650       0.01112975      -0.07953284
Se      15.64036007      17.74749097       4.48576781      -0.02635634      -0.02744325      -0.06477271
Se      27.14138782      17.72967350       4.45945868       0.06092786       0.05240289       0.01839426
Se       4.11359877       1.01963019       8.82570950       0.02189634       0.12068930       0.03747037
Se      15.62683949       1.05101329       8.83130798       0.00681294      -0.07501398      -0.03116455
Se      27.14241965       1.04907530       8.83501642       0.07200467      -0.01759552      -0.02184721
Se       4.10845832       5.21233459       8.80553015       0.07274215       0.00381396       0.13615678
Se      15.62137860       5.20984014       8.82852545       0.05126016       0.03136790      -0.00683740
Se      27.13897279       5.21213031       8.81553048       0.08229952       0.00930645       0.02084471
Se       4.11785492       9.39561112       8.83180744       0.01270752      -0.04197181      -0.03549061
Se      15.63240881       9.37594324       8.82158425      -0.01952250       0.07621380       0.04204383
Se      27.14435355       9.38732102       8.82853360       0.01525659       0.01301206       0.03039413
Se       4.13039919      13.57356407       8.81790861      -0.05348428      -0.05929739       0.08806075
Se      15.63906923      13.57184613       8.81972311       0.01074383      -0.02101485       0.06999584
Se      27.15691528      13.56383934       8.81368425      -0.04728132       0.03017450       0.03389695
Se       4.12069580      17.74170187       8.82550701      -0.06893005      -0.02974071       0.02850374
Se      15.63191067      17.73234140       8.83388509      -0.00928761       0.02903803      -0.02776670
Se      27.14799211      17.74119674       8.83135521       0.02326719      -0.01517651      -0.01369969
Se       4.10459792       1.03423286      13.16678822       0.01073593       0.02963769       0.06152743
Se      15.63793262       1.03105359      13.19021336      -0.02788083       0.07086958      -0.01257144
Se      27.15213650       1.04919922      13.17684750      -0.00616481      -0.03963144       0.02557659
Se       4.11549216       5.23396764      13.20603081      -0.02631134      -0.10186028      -0.04869231
Se      15.64215843       5.22063976      13.17883660      -0.09513156      -0.03798692       0.01833298
Se      27.15561283       5.21568462      13.19449295      -0.02215918       0.03975209      -0.00193481
Se       4.10981534       9.38962464      13.19052914      -0.00331854       0.00488353      -0.01437228
Se      15.63474798       9.39629120      13.18309572      -0.01514291      -0.01933188      -0.00233513
Se      27.13499377       9.40760182      13.21378021       0.06596632      -0.06017526      -0.13564430
Se       4.12061798      13.55220319      13.18115572      -0.04760194       0.04224318       0.04079299
Se      15.63737637      13.57885427      13.17675876      -0.07452184      -0.05724067       0.08362816
Se      27.14718329      13.56740243      13.19753345       0.04119358      -0.04157757      -0.00621036
Se       4.11270777      17.72389410      13.19509964       0.08294827       0.05469215      -0.02873356
Se      15.64353316      17.73870634      13.19294007      -0.03329754       0.01026741      -0.02797079
Se      27.14368170      17.73107452      13.19915192       0.06511423       0.06455761      -0.08118410
Se       4.12001874       1.04807938      17.56501270       0.03514433       0.02401681      -0.11306849
Se      15.62173677       1.03765543      17.55157088       0.06522221       0.03842029       0.00417567
Se      27.14278348       1.05100706      17.54811755       0.03299075      -0.02154675       0.01070451
Se       4.10621845       5.21792255      17.55169493       0.06773216      -0.01674538      -0.02736572
Se      15.64163202       5.22119624      17.55460301      -0.03315517      -0.07207043       0.02024358
Se      27.15162953       5.21538261      17.54282936      -0.02123637       0.01058056       0.04248157
Se       4.11903216       9.38802272      17.56688977      -0.01445658       0.04039118      -0.05077954
Se      15.64570702       9.39768236      17.55377622      -0.05855005      -0.04502574       0.02719032
Se      27.14754703       9.37874273      17.54782982       0.00884709       0.02271490       0.04724709
Se       4.11715778      13.56773768      17.55468691      -0.03062793       0.00672353       0.03222865
Se      15.64149850      13.55852157      17.54316079      -0.04116040       0.02689991      -0.01707917
Se      27.16293518      13.57315293      17.54608384      -0.10066524      -0.03468747       0.02257088
Se       4.11507167      17.73850511      17.55030729      -0.02717113       0.02652384       0.02665570
Se      15.63701203      17.76488218      17.55188911      -0.04350026      -0.14172818       0.01074597
Se      27.15505260      17.72266748      17.54514255      -0.03997033       0.09680974      -0.02514092
Se       7.41131809       3.13424342       4.21107182      -0.05646949      -0.01531189       0.20118478
Se      18.92191160       3.14940191       4.23500389      -0.00517722      -0.06032715       0.04932820
Se      30.44650666       3.10250070       4.26434296      -0.08412772       0.14433527      -0.05230917
Se       7.39894346       7.28080969       4.25942435       0.06225917       0.09075885       0.00117434
Se      18.92667976       7.30794827       4.26081124      -0.04680819      -0.00408122      -0.05853423
Se      30.42719602       7.28569550       4.26188161       0.00928255       0.13439106      -0.02201888
Se       7.41652748      11.48969435       4.23508421      -0.03281744      -0.06442410       0.08035294
Se      18.90002242      11.46993886       4.23903321       0.12681072       0.01919202       0.05055840
Se      30.43175468      11.48233270       4.24066043      -0.02519769      -0.03111980       0.06444481
Se       7.40680123      15.65849872       4.24948138      -0.04382594      -0.02918885       0.01482474
Se      18.91344614      15.63298967       4.25164035       0.04369244       0.08606099       0.06460050
Se      30.43138663      15.65417516       4.25875174       0.04218894      -0.00711006      -0.02229394
Se       7.40147236      19.82393338       4.25782492      -0.05892416       0.03335656      -0.03873765
Se      18.92519168      19.82562184       4.25813892      -0.07039326       0.01167839      -0.00671990
Se      30.42945107      19.82010923       4.26019176       0.02103642       0.02675077       0.00979883
Se       7.39347768       3.13408173       8.61634940       0.06905460      -0.04158293       0.00008234
Se      18.91213202       3.12693883       8.61098564      -0.05419352       0.01594268      -0.02798571
Se      30.41485477       3.13404921       8.61838232       0.11179709      -0.00686736      -0.02845274
Se       7.40752665       7.29899483       8.63502068      -0.02030374       0.04594124      -0.10742153
Se      18.91137400       7.29555830       8.60613000       0.00914258       0.00576658       0.02954622
Se      30.41397356       7.31963568       8.62977752       0.08403113      -0.05850578      -0.06676458
Se       7.40503739      11.46943765       8.63417952      -0.08083619       0.04099060      -0.03090892
Se      18.91165417      11.47570828       8.63043944       0.01516683      -0.01808067      -0.07989691
Se      30.43790189      11.50040957       8.61855407      -0.04819741      -0.11538472       0.02723753
Se       7.39505964      15.64636963       8.59759689       0.09033375       0.05317604       0.06387597
Se      18.91238541      15.66393361       8.62205519       0.05682057      -0.02281594      -0.08779439
Se      30.43151586      15.64253834       8.61833558      -0.01359787       0.04260149       0.03983727
Se       7.40915808      19.83088401       8.61773420      -0.04313579      -0.03823395      -0.00863269
Se      18.90720179      19.83524864       8.58474780       0.04713488      -0.01909138       0.13563256
Se      30.43514124      19.85228004       8.60098311      -0.05116236      -0.10755910       0.02955906
Se       7.39661625       3.13014115      12.97254490       0.05149327       0.03424878       0.06223712
Se      18.92553511       3.13494477      12.97869373      -0.06566514       0.01843692       0.01685777
Se      30.43928551       3.13038777      13.00896937      -0.01729601       0.01445336      -0.15479341
Se       7.40054341       7.30626222      12.96006605       0.03591450      -0.01248960       0.06940860
Se      18.90973686       7.31578318      12.96381616       0.02629244      -0.08177279       0.06918286
Se      30.40973721       7.30463256      12.99087817       0.11212093       0.04228853      -0.05659716
Se       7.39945376      11.47503730      12.95858585       0.05407531       0.02745178       0.07465770
Se      18.91969390      11.48501129      12.95935340      -0.07403822      -0.01509576       0.08678453
Se      30.44265811      11.48605550      12.98849389      -0.04979640      -0.00518766      -0.00531970
Se       7.40486519      15.65902451      12.98237794      -0.01520835      -0.01785960      -0.02871231
Se      18.92385609      15.63430010      12.96216013      -0.06022856       0.08322722       0.06370747
Se      30.42395270      15.65118948      12.98105210       0.03081750       0.03744894      -0.03073923
Se       7.40227676      19.83774788      12.98865568      -0.03125332      -0.02486618      -0.03997706
Se      18.90644751      19.82896258      12.96869241       0.04397667      -0.00877146       0.06844722
Se      30.42943031      19.82979473      12.94308361       0.01499870      -0.01712582       0.15256636
Se       7.42314238       3.13588435      17.33231757      -0.12063658      -0.00487643       0.03842616
Se      18.93444506       3.12674595      17.33959980      -0.09745402       0.05004198      -0.02076590
Se      30.42644163       3.14674018      17.33722476      -0.00256716      -0.07224393       0.00905086
Se       7.40052478       7.31634722      17.34412600      -0.00858258      -0.01736878       0.00315179
Se      18.91462788       7.31541331      17.36365944      -0.02999059      -0.02619495      -0.05318437
Se      30.43448689       7.30547700      17.33998088      -0.04738810       0.00878481       0.02483532
Se       7.41213424      11.47240656      17.33549143      -0.05083815       0.02593168       0.01679504
Se      18.89979693      11.46655986      17.33309661       0.04518506       0.08066014      -0.00841659
Se      30.43075341      11.49608937      17.34363453       0.08809165      -0.10987074      -0.08090358
Se       7.38990916      15.64520788      17.35202209       0.05605381       0.00857466      -0.03825270
Se      18.92643747      15.65276918      17.33384934      -0.09423163       0.00568134       0.03059255
Se      30.44256211      15.64255441      17.34219491      -0.05057962       0.05376405      -0.00266470
Se       7.42175653      19.82863038      17.33051851      -0.17874458      -0.03303915       0.04119565
Se      18.91927505      19.82187673      17.32433345      -0.03080064       0.01839467       0.03288623
Se      30.43832314      19.83775517      17.33516554      -0.04698869      -0.05522003       0.01007389
Se       7.39525759       3.12060461      21.69787913      -0.03389252       0.05187831      -0.00132521
Se      18.90954768       3.12010993      21.71830018       0.03127798       0.05503708      -0.02760908
Se      30.43597771       3.13594421      21.70821248      -0.05731537      -0.05975209      -0.03898200
Se       7.40674031       7.30017830      21.70210401      -0.02440412       0.02108045      -0.02415875
Se      18.91248106       7.30869404      21.70279540      -0.00461228      -0.02572819      -0.02306716
Se      30.42748618       7.29101641      21.70084086       0.05645972       0.07739624       0.00698449
Se       7.39698725      11.45949482      21.70445510       0.05618986       0.10234902      -0.02417361
Se      18.92482478      11.50368211      21.69546651       0.01347044      -0.08925381       0.02367608
Se      30.42592566      11.46730433      21.70146491       0.02204291       0.04278315      -0.05441584
Se       7.40105313      15.64437472      21.69762919       0.00451186       0.04710109      -0.02175900
Se      18.89538471      15.66175145      21.69167169       0.01733685      -0.03628350       0.00707995
Se      30.43096622      15.63822075      21.69355495       0.02810521       0.04489894      -0.00199815
Se       7.39623403      19.82646391      21.70417581       0.06153518      -0.05314219      -0.01506463
Se      18.92956211      19.83390393      21.70900013      -0.04084495      -0.00276496      -0.01090009
Se      30.44577382      19.83227390      21.69901141      -0.11300195      -0.01891766       0.00092349
Se       1.65105035       3.14095035       2.29261363      -0.02840511      -0.02168300      -0.05458862
Se      13.14255438       3.12180566       2.28337943       0.10929920       0.03600299       0.02844607
Se      24.68103828       3.13000680       2.29749665      -0.05993588       0.00743331      -0.07624847
Se       1.65411160       7.31630111       2.29818337      -0.13653327      -0.03448918      -0.05201372
Se      13.14673071       7.30913576       2.28005268       0.01960775      -0.06053290       0.03567294
Se      24.65675141       7.30143469       2.29937534       0.01485123       0.02143378      -0.03792556
Se       1.64556665      11.49857663       2.28790027       0.01473704      -0.07015285       0.00479320
Se      13.18157868      11.48017375       2.28635277      -0.12744378      -0.01545628      -0.03306225
Se      24.66044817      11.48950417       2.28110672       0.03308448      -0.04992721      -0.01671799
Se       1.63448876      15.66529999       2.29771019       0.00972876      -0.04761302      -0.06374914
Se      13.16842117      15.64886577       2.28561821      -0.03917035      -0.00898593      -0.01297138
Se      24.67264353      15.66031286       2.30166361      -0.02335414      -0.07454834      -0.07356603
Se       1.64464070      19.84632573       2.29509991      -0.10088553      -0.07473583      -0.04571984
Se      13.15475266      19.83486394       2.30318737       0.05048448      -0.07219544      -0.00509596
Se      24.69322496      19.83844573       2.28638471      -0.12624252      -0.04329842      -0.03061533
Se       1.63879230       3.13598096       6.66397159      -0.01328305      -0.03914886      -0.03188866
Se      13.16143834       3.13476558       6.64774583      -0.05522630      -0.00268817       0.00560911
Se      24.66996316       3.12859892       6.64858611       0.03197377       0.02093225      -0.03225594
Se       1.65814023       7.30191226       6.64775797      -0.05892835       0.01358050       0.02783630
Se      13.14844688       7.31147571       6.66089864       0.04089381      -0.07084674      -0.03183771
Se      24.68948705       7.30634305       6.65297539      -0.10513276      -0.00066459      -0.03170199
Se       1.63942373      11.48367873       6.65037150      -0.01187856      -0.04052098       0.02088815
Se      13.15768330      11.47977608       6.65175107       0.05292766       0.00292267      -0.00411513
Se      24.67030055      11.47597357       6.66430547      -0.01164498       0.02236746      -0.07379977
Se       1.66806470      15.64044401       6.63463713      -0.12313832       0.04028326       0.09003978
Se      13.14752913      15.65145480       6.65618965       0.06077463       0.04357763      -0.02621299
Se      24.67915460      15.65420799       6.65252120      -0.02221966      -0.02481079      -0.02710447
Se       1.63403837      19.82413559       6.64703090       0.02905145       0.03818756       0.01101394
Se      13.14125849      19.81496372       6.63601619       0.06688639       0.03459934       0.06637992
Se      24.68088316      19.82903037       6.65334246      -0.02957113       0.00580602      -0.00647117
Se       1.62256268       3.11538459      11.01496788       0.10110219       0.02990426      -0.02651280
Se      13.12931396       3.14246655      10.99010256       0.16992922      -0.07055201       0.10964887
Se      24.68167552       3.12133442      11.01882476      -0.06967738       0.05996313      -0.04913047
Se       1.67304084       7.28157762      11.01528950      -0.17607336       0.06832821      -0.06043051
Se      13.13901903       7.30857709      11.00626801       0.07830229      -0.03417980       0.03057722
Se      24.67453990       7.29519254      11.01614114       0.01387335       0.04848748      -0.02146578
Se       1.62647565      11.49081491      11.00424322       0.02371213      -0.04792434       0.02659468
Se      13.14307375      11.49434791      11.00766230       0.06321653      -0.07280858       0.02708323
Se      24.69231843      11.49061210      11.00035427      -0.05835169      -0.07476260       0.01228168
Se       1.64010934      15.65369806      11.02359876      -0.01606775      -0.02311398      -0.04663650
Se      13.16147583      15.65425061      11.00633693      -0.02220372      -0.02595917       0.01242434
Se      24.67273650      15.66553360      11.00837278      -0.01861525      -0.04726714       0.02288859
Se       1.63700926      19.82093175      11.00279808      -0.01016132       0.03887762      -0.00498795
Se      13.14307969      19.81907307      11.02331993       0.06855914       0.04244733      -0.05848370
Se      24.67117608      19.83362094      10.98354816       0.01062278      -0.02779520       0.12738241
Se       1.64664235       3.12860673      15.36462521       0.04575634       0.02812057       0.01710060
Se      13.15891025       3.12526201      15.34820086       0.00993521       0.02439454       0.05487250
Se      24.68246455       3.13265044      15.36630018      -0.05935176      -0.02778877      -0.01783094
Se       1.63129738       7.28961083      15.37167853       0.00578042       0.06817444       0.01495360
Se      13.17323506       7.30634107      15.35561199      -0.11572501      -0.01038645       0.04195128
Se      24.67549324       7.30377597      15.37808004      -0.04372035       0.01655480      -0.07867041
Se       1.64702657      11.44854032      15.37489203      -0.01562340       0.14017822      -0.04263453
Se      13.14706586      11.46418125      15.36755487      -0.01040645       0.07238830      -0.02981906
Se      24.67735178      11.46199120      15.37648537      -0.03475592       0.11075212       0.00650696
Se       1.64859262      15.65295744      15.36076337      -0.05190851       0.01810347       0.08842311
Se      13.14730687      15.66274700      15.35432738       0.04385774      -0.07426272       0.07685087
Se      24.68388678      15.65083569      15.36848126      -0.02307409      -0.01545732       0.01146595
Se       1.62387836      19.82510965      15.37557546       0.08897456       0.02501992       0.02523124
Se      13.14373655      19.83156318      15.37032973       0.08320325      -0.03393229       0.00804998
Se      24.66680452      19.83512355      15.34741704       0.00900579      -0.02121982       0.13041703
Se       1.64442604       3.14641461      19.74494292      -0.01347729      -0.03452021      -0.02876952
Se      13.16099872       3.12720345      19.72418546       0.02957042      -0.01367708       0.05696889
Se      24.67021282       3.13565833      19.72247105       0.00476026      -0.02057613       0.02548537
Se       1.64853347       7.32564101      19.72992465      -0.07711708      -0.07690017       0.02895932
Se      13.14365671       7.29086195      19.73830914       0.07360872       0.03212705      -0.01136069
Se      24.67264461       7.31307771      19.72520714       0.05524240      -0.04441081       0.03008141
Se       1.64926547      11.47681555      19.72321845      -0.08628374       0.05374980       0.07148826
Se      13.15309067      11.46642800      19.75043708       0.05639392       0.04187255      -0.07078205
Se      24.67227826      11.48484368      19.72517480      -0.04897012      -0.00677058       0.03375532
Se       1.63043996      15.65014888      19.74155541       0.03419448       0.02286185      -0.05531009
Se      13.15189334      15.64378236      19.73209813       0.05042018       0.05654897      -0.01935880
Se      24.67823230      15.66891616      19.73408099      -0.06454199      -0.09566595       0.00305557
Se       1.64739916      19.83376957      19.71901333       0.02106023      -0.03910200       0.04191927
Se      13.14746733      19.81573786      19.71722203       0.07360153       0.03682411       0.07070882
Se      24.68119667      19.82947732      19.73133845      -0.00896169      -0.03126660      -0.00765990
Se       9.84828732       1.06373046       2.06546831       0.19059304      -0.10999465       0.01706763
Se      21.41087403       1.02868328       2.06628702      -0.12012528       0.07986457       0.02413817
Se      32.88446883       1.04679694       2.06339846       0.06090145      -0.04996698       0.07435955
Se       9.86348449       5.20353969       2.08218458       0.02348016       0.08591952      -0.02542142
Se      21.39747054       5.23538517       2.06755396      -0.02411778      -0.05450096       0.02996066
Se      32.90868552       5.20437148       2.07106064       0.06456307       0.04287440       0.06864927
Se       9.86902603       9.39599847       2.08458124      -0.00079648      -0.02972385      -0.03520506
Se      21.40026657       9.38292585       2.08439571      -0.05855861       0.05895522      -0.07602204
Se      32.90605648       9.38810800       2.06732591       0.01268391       0.03659238       0.00627164
Se       9.86861513      13.58286625       2.07748513       0.02251127      -0.08600773       0.00531863
Se      21.39210203      13.56282064       2.09887081       0.03471530       0.01409042      -0.12305591
Se      32.91954743      13.55823249       2.07167488      -0.10659633       0.04323567      -0.03104852
Se       9.87207204      17.74099097       2.06739877       0.03454028      -0.04776608       0.04065885
Se      21.39474407      17.75405313       2.06127475      -0.01350018      -0.06276389       0.02393804
Se      32.89521586      17.73470067       2.07004307       0.08390874       0.00947892       0.00276766
Se       9.89419915       1.05319278       6.44495813      -0.05742195      -0.01967212      -0.06969313
Se      21.38771225       1.04031256       6.42099785       0.03614468       0.01781296       0.04277025
Se      32.91431473       1.04808624       6.44837488      -0.06036389       0.00381592      -0.05738101
Se       9.87210619       5.21584704       6.43721536       0.05711382       0.00484213       0.00631061
Se      21.39927488       5.20256268       6.44287547      -0.01317930       0.09688913      -0.04922463
Se      32.90629237       5.20667846       6.41466885       0.04642835       0.03655903       0.10455518
Se       9.87284975       9.40583110       6.45226175      -0.01104659      -0.08368219      -0.07610341
Se      21.39390967       9.41097403       6.43508550       0.04426920      -0.06518197       0.00059784
Se      32.91603036       9.38684166       6.43036892       0.00176037       0.01232551       0.00437374
Se       9.86743940      13.54483782       6.44838583       0.00723806       0.11940349      -0.05417227
Se      21.38393958      13.55742872       6.42371519       0.02986657      -0.01638137       0.01340805
Se      32.90445373      13.58307803       6.45645270       0.02319825      -0.09600760      -0.12857304
Se       9.85760582      17.73598777       6.42517133       0.05916677       0.02266508       0.02699725
Se      21.40023928      17.74239819       6.42914921      -0.01942388      -0.01286316       0.03541921
Se      32.90722306      17.73475807       6.45165737      -0.05958812       0.02124738      -0.04772033
Se       9.87968408       1.04987393      10.76994961      -0.02192246      -0.03387011       0.11738633
Se      21.38968802       1.06400780      10.80988008      -0.00852021      -0.11627316      -0.04107800
Se      32.88802643       1.04004143      10.78460359       0.13017558      -0.01469038      -0.00753305
Se       9.89132550       5.21970761      10.78894083      -0.05561024       0.00583273       0.08913408
Se      21.39069749       5.19119118      10.78576917      -0.00372255       0.09545333       0.02037853
Se      32.90686176       5.22572158      10.77720565       0.01632323      -0.03110254       0.08489038
Se       9.87040293       9.40145083      10.78210425       0.01062298      -0.05348505       0.10133446
Se      21.39264774       9.39201372      10.81376259      -0.00506151      -0.01045503      -0.07353889
Se      32.90419597       9.38963797      10.80516838      -0.03499832      -0.02771673       0.00249883
Se       9.86095100      13.56323428      10.79206154       0.07005236       0.04638165       0.04058602
Se      21.38896679      13.57392718      10.80216040       0.01989394      -0.00832531      -0.04518982
Se      32.89901050      13.56681010      10.81152320       0.03630819       0.00284468      -0.05724800
Se       9.86590083      17.74098392      10.79468718       0.06881882      -0.04412168       0.04327518
Se      21.38972586      17.72322568      10.81072642      -0.01279117       0.08419885      -0.10879409
Se      32.89875381      17.74979297      10.79040502       0.04009047      -0.06082037       0.04553193
Se       9.86795944       1.05530692      15.16766151       0.03209165      -0.05660997      -0.05275318
Se      21.39244257       1.05078720      15.15483714       0.01678367      -0.03350291      -0.00562448
Se      32.90641365       1.03655945      15.16676332      -0.00757470       0.00892128      -0.03794062
Se       9.86728035       5.23211639      15.15456433       0.03735905      -0.04391534      -0.02039093
Se      21.39056099       5.22485211      15.15796131      -0.01821303      -0.01907376      -0.03896579
Se      32.90351824       5.21696460      15.16666085       0.04938453       0.00689616      -0.00668387
Se       9.86758596       9.39009160      15.15782553       0.04846928      -0.01533207       0.00294915
Se      21.39900176       9.39035552      15.17580566      -0.05008810       0.00164314      -0.09820330
Se      32.90493194       9.38897713      15.15601235       0.03372631       0.03864340      -0.00758284
Se       9.86104807      13.55507584      15.15241600       0.05260253       0.04337222       0.03085143
Se      21.40171421      13.56511185      15.15287622      -0.09661700      -0.02164369       0.01132387
Se      32.91876267      13.58095488      15.17027649       0.04635208      -0.06349801      -0.05045943
Se       9.86568359      17.73457977      15.17586003       0.03169787       0.04963280      -0.11909320
Se      21.39276730      17.73685598      15.16490615      -0.06655100       0.00081865      -0.08030901
Se      32.91657032      17.73381776      15.15991707      -0.11958448      -0.00265833      -0.00669508
Se       9.88348009       1.03157282      19.51895000      -0.04909314       0.01731216       0.03876387
Se      21.37921201       1.03333989      19.51319555       0.11887741       0.04810849       0.04887731
Se      32.91126852       1.03995546      19.51234237      -0.03147831      -0.00663266       0.02863640
Se       9.87473003       5.20579520      19.52311458      -0.03743651       0.05088543      -0.06444223
Se      21.40166977       5.21647279      19.51680006      -0.09537937       0.01780377       0.01243975
Se      32.91023173       5.19698014      19.52419472      -0.06770957       0.11245088       0.00786993
Se       9.90523335       9.39012721      19.51763530      -0.11717088       0.03156895       0.01501335
Se      21.39779198       9.40780730      19.52857623       0.01780530      -0.00900775      -0.00936166
Se      32.88494126       9.39698796      19.54454585       0.10240880      -0.01213299      -0.10095386
Se       9.88043890      13.55389709      19.52164484      -0.02815536       0.01214551       0.00927021
Se      21.37754903      13.57777115      19.50926772       0.05842560      -0.04075760       0.05719343
Se      32.90723976      13.55686531      19.51336207       0.00898382       0.03715766       0.03713287
Se       9.88907599      17.74056682      19.51323452      -0.10157596      -0.00866475       0.04553351
Se      21.37890363      17.72081524      19.50631374       0.07231284       0.10652881       0.05365766
Se      32.90761692      17.74933459      19.51322303       0.02583580      -0.02581513       0.03740523
Sn       7.13992489       1.03600069       1.77939508      -0.18512417       0.02883057       0.00680903
Sn      18.62956511       1.05308331       1.80275031       0.13533810      -0.04448154      -0.04066726
Sn      30.13888412       1.03971407       1.79442300      -0.00278974       0.02047499      -0.01563341
Sn       7.10975000       5.22293167       1.79398992       0.03847517      -0.02664306      -0.02898805
Sn      18.64114316       5.22276746       1.79938422       0.03478802      -0.01340631      -0.04138528
Sn      30.17598656       5.21664516       1.77645142      -0.07543820       0.01879318       0.03833313
Sn       7.11501965       9.40112361       1.76805744       0.00896969      -0.06643270       0.06216602
Sn      18.63783513       9.39238087       1.77674517       0.03027654       0.04049672       0.00404427
Sn      30.15930050       9.41699910       1.78055921      -0.03974578      -0.13141349       0.01465449
Sn       7.11986540      13.57559643       1.78417104       0.01786696      -0.05068936       0.00422479
Sn      18.65475423      13.56708999       1.77929097      -0.05759902       0.02661633       0.07656161
Sn      30.13866505      13.54924576       1.76341821       0.08989050       0.05583793       0.04896615
Sn       7.12801285      17.72590976       1.79433097      -0.03633816       0.03782358      -0.05254309
Sn      18.64066334      17.73709038       1.77333665       0.00323698       0.02551143       0.04363482
Sn      30.16272488      17.73148727       1.77192142      -0.07943066      -0.00508681       0.02119031
Sn       7.13610295       1.04672190       6.14052979       0.00819390       0.05823015      -0.01705342
Sn      18.64677520       1.04326501       6.14670921      -0.02400683       0.02525312      -0.02254425
Sn      30.14833382       1.06387968       6.13708288       0.04877613      -0.11663662       0.04760927
Sn       7.13977962       5.21537614       6.15095005      -0.04540106      -0.06490767      -0.04263445
Sn      18.64770311       5.22873335       6.13447284      -0.02266564      -0.03900060       0.02637563
Sn      30.16725865       5.23572923       6.14029215      -0.05284026      -0.08913649       0.03027734
Sn       7.12456652       9.38611950       6.13941472       0.00575425       0.03300307      -0.04125446
Sn      18.65747510       9.38131163       6.13345789      -0.08923686       0.07054365       0.01538256
Sn      30.17261130       9.39759946       6.16408278      -0.03293932      -0.01675938      -0.06877953
Sn       7.11971507      13.56670592       6.13627231       0.00338429      -0.01965811       0.01258078
Sn      18.64179389      13.54770214       6.14972863      -0.02587786       0.02623192      -0.08930357
Sn      30.15973704      13.56486756       6.13897544      -0.03000717       0.02101252       0.01043373
Sn       7.11527191      17.74680938       6.13116818      -0.02898426      -0.03616564       0.06761874
Sn      18.64547983      17.76027677       6.15773429       0.03922671      -0.10646897      -0.06328385
Sn      30.14145102      17.73416487       6.14709359       0.08787390       0.00097384      -0.01525822
Sn       7.12351664       1.02918163      10.50783612       0.03484074       0.06376739      -0.01644030
Sn      18.64026071       1.06231895      10.50145067       0.02814075      -0.08579508      -0.00846111
Sn      30.16818233       1.03050481      10.49370287      -0.15598363       0.06858743       0.04455107
Sn       7.13143607       5.22810214      10.49440903       0.03593525      -0.06605966       0.07227656
Sn      18.64060165       5.20344904      10.50217076       0.00594322       0.04426972       0.00369761
Sn      30.16487152       5.21291525      10.50149261      -0.04735430       0.00471120       0.01570481
Sn       7.11292150       9.38487039      10.52156407       0.03884099       0.03537005       0.00233172
Sn      18.64109012       9.38133089      10.50083524       0.00345127      -0.01118046       0.04051531
Sn      30.14052802       9.38121237      10.51758636       0.08513724       0.08445759      -0.01675250
Sn       7.12279463      13.58435041      10.50302948      -0.03363151      -0.06445452      -0.02286936
Sn      18.64000109      13.57185205      10.47725708      -0.02140473      -0.00333562       0.10424531
Sn      30.15855169      13.56495325      10.51884335      -0.03708343       0.02373698      -0.03123640
Sn       7.13386625      17.72819533      10.51640435      -0.05561177       0.00908871      -0.08797757
Sn      18.63773773      17.73048772      10.50595399      -0.00045235       0.08214656      -0.00762034
Sn      30.15447460      17.75491690      10.50738918       0.00227074      -0.02561480      -0.04752190
Sn       7.12627604       1.05218216      14.87601556      -0.03375969       0.03157311      -0.02196795
Sn      18.64819693       1.05737033      14.87117366      -0.01742898      -0.06656302      -0.03645695
Sn      30.15817881       1.05556741      14.86417788      -0.00552065      -0.08791493       0.00392233
Sn       7.12455192       5.23448060      14.88130608      -0.00507949      -0.03457098      -0.09252559
Sn      18.64027912       5.21272932      14.87971857      -0.01814055       0.06390168      -0.07214884
Sn      30.16450648       5.22042064      14.86186811      -0.04801607       0.00601306       0.08065153
Sn       7.12753642       9.39113689      14.85844346      -0.04731290       0.02228249      -0.03050974
Sn      18.64165130       9.39400821      14.86133289       0.01828671       0.00544396      -0.03413363
Sn      30.16554055       9.40424230      14.87478582      -0.06156992      -0.02605693      -0.00193318
Sn       7.12145697      13.57300133      14.86586645      -0.02729462      -0.05447402      -0.02472192
Sn      18.62800341      13.57217041      14.86654816       0.09311328      -0.03342368      -0.03704233
Sn      30.18243777      13.58001582      14.87219834      -0.09865393      -0.03036293       0.02978842
Sn       7.12671116      17.74116947      14.85504995      -0.06024201       0.00319379       0.05841368
Sn      18.62297100      17.73080666      14.86460967       0.07964425       0.01508032      -0.06593245
Sn      30.13544690      17.73408903      14.86261071       0.12954673       0.06674395      -0.03459175
Sn       7.12206519       1.03655846      19.22277558       0.07581507       0.02207799       0.00681015
Sn      18.65759981       1.04979714      19.22058771      -0.08600352      -0.05554558       0.02857526
Sn      30.15581882       1.04289256      19.21851117       0.02937415       0.03316762       0.00588830
Sn       7.11652815       5.22737007      19.22199288       0.02415975      -0.01778130       0.01123723
Sn      18.62941391       5.21683343      19.22737082       0.09871107       0.01028449       0.00854466
Sn      30.13677525       5.21685737      19.23487052       0.11939080       0.01817673      -0.00657570
Sn       7.12873175       9.41365192      19.23870181       0.07377365      -0.04783356      -0.00638576
Sn      18.65485021       9.41935483      19.23377228      -0.03496061      -0.06442643       0.03541846
Sn      30.15813300       9.40109137      19.22059836      -0.08699091      -0.02605555       0.00718435
Sn       7.12529632      13.55896583      19.23017057       0.03954502      -0.00455559      -0.00713913
Sn      18.63384178      13.55857383      19.23032545      -0.01040406       0.02114019      -0.05063377
Sn      30.15512518      13.54616790      19.21163515      -0.00960805       0.08285012       0.07159453
Sn       7.11274679      17.73070253      19.23033495       0.10786697       0.02642051      -0.01554999
Sn      18.64255026      17.75018504      19.23371874      -0.02619317      -0.01702400      -0.04927874
Sn      30.16722132      17.74561621      19.22828751      -0.04356905      -0.01606858      -0.01846080
Sn       4.40194778       3.13941439       2.58252475      -0.01601849      -0.06467099      -0.01343201
Sn      15.91980640       3.10676238       2.57585916      -0.11319111       0.09882193       0.03292173
Sn      27.42017920       3.14174709       2.59447774       0.05064190       0.00772576      -0.11200066
Sn       4.37645247       7.31842107       2.56704934       0.10722720      -0.02150504      -0.01935468
Sn      15.89568353       7.30196654       2.57558173       0.00842227       0.04119629       0.05539671
Sn      27.40765293       7.31080818       2.58555782       0.05340425      -0.03150606      -0.06253781
Sn       4.40149468      11.47406399       2.57836797      -0.03812006       0.00666164       0.01717728
Sn      15.90679141      11.49527850       2.55042135       0.06131985      -0.03876378       0.09369996
Sn      27.41366766      11.47845395       2.56790809      -0.02279338      -0.02020975       0.02680365
Sn       4.38837106      15.65122693       2.57218693      -0.03388539       0.00348281       0.04224465
Sn      15.90774038      15.65876917       2.57640113       0.03346827      -0.02530036       0.07072822
Sn      27.41870516      15.65083003       2.57868943       0.03392526      -0.00181285      -0.00661372
Sn       4.37355107      19.83119236       2.57425378       0.08607951      -0.01832832       0.00199384
Sn      15.91971104      19.83248736       2.59046446      -0.03926576      -0.03673819      -0.00871262
Sn      27.41312707      19.82286295       2.56633921       0.09182091       0.00416240       0.01012056
Sn       4.38390235       3.14274132       6.95474258       0.07193814      -0.09560942      -0.08249565
Sn      15.89561435       3.12563748       6.93910572       0.07596834       0.02682689      -0.00535217
Sn      27.42909316       3.11262216       6.92383767      -0.05422704       0.05911313       0.02807941
Sn       4.39585053       7.28481902       6.93539970       0.03800731       0.09114733      -0.02257472
Sn      15.90871660       7.30846606       6.93845049      -0.02697998      -0.02803436      -0.01937356
Sn      27.41957954       7.31275511       6.94271973       0.08313192      -0.03459620      -0.02220645
Sn       4.38448410      11.47877577       6.94369936       0.04447544      -0.01965707      -0.02743700
Sn      15.92427806      11.48626178       6.95201324      -0.07633807      -0.05975801      -0.05620936
Sn      27.41713103      11.47315671       6.93751387       0.01100171       0.01304773      -0.00452478
Sn       4.38951854      15.64240743       6.95252701       0.12158842       0.06666263      -0.06755897
Sn      15.91592920      15.64943090       6.94628478      -0.04997977       0.02302232      -0.04631382
Sn      27.42546610      15.65968596       6.92642460       0.01313516      -0.02174047       0.04420060
Sn       4.38949766      19.82599644       6.94610409      -0.00629642      -0.03048154      -0.05966299
Sn      15.90081131      19.80157751       6.92905068      -0.03874502       0.05637941       0.06215566
Sn      27.42262663      19.82721566       6.95670516       0.02798258       0.00346062      -0.02595909
Sn       4.39678173       3.13103556      11.30064764      -0.05578208       0.01567797       0.05042103
Sn      15.91813752       3.12431916      11.29956872      -0.12975863       0.01575665       0.01708145
Sn      27.41234452       3.14440932      11.30489654       0.08890700      -0.03040330      -0.04063829
Sn       4.38387903       7.30316485      11.30606806       0.12531664       0.02654796       0.00932829
Sn      15.90458850       7.29896470      11.29442882      -0.03585739       0.01594700       0.00394297
Sn      27.42662672       7.30072886      11.29643398      -0.03411344       0.03431473       0.06764601
Sn       4.37759365      11.47917495      11.29915932       0.02700091      -0.03327287       0.00379283
Sn      15.90387920      11.48038625      11.30845158       0.00221461      -0.00777010      -0.02212537
Sn      27.43025276      11.48392583      11.29856485       0.01816576      -0.01571000       0.03007378
Sn       4.38528428      15.64204852      11.29503999       0.01123128       0.01130274       0.02089066
Sn      15.90729219      15.64462482      11.30193213       0.02052900       0.06446293      -0.01516133
Sn      27.41358254      15.63587776      11.30916562       0.04181184       0.04793831      -0.02360399
Sn       4.38621012      19.81820648      11.29003308      -0.01148047      -0.02957473       0.01052367
Sn      15.91132605      19.84032590      11.29694082      -0.05079228      -0.05714026       0.00896425
Sn      27.42108147      19.83729314      11.28286710      -0.00175215      -0.03814959       0.06370089
Sn       4.41062295       3.15466126      15.63501206      -0.09041341      -0.08781319       0.08699361
Sn      15.90612065       3.12303079      15.65942772      -0.02257153       0.00304852      -0.00165009
Sn      27.41905326       3.13833785      15.66094973       0.04954499      -0.01075740      -0.02097145
Sn       4.38184519       7.30258755      15.66722328      -0.00169359       0.03742334      -0.00487783
Sn      15.89525847       7.28784706      15.68200286       0.11971872       0.07197713      -0.06652440
Sn      27.41681284       7.30293587      15.65809748       0.02553674      -0.00046960      -0.02786801
Sn       4.39643514      11.49612644      15.66787477      -0.01541495      -0.09029693      -0.01024380
Sn      15.89191203      11.46455731      15.65808579       0.02635793       0.03053236       0.00043500
Sn      27.42055477      11.46117903      15.67026884       0.04691391       0.03907278      -0.02001808
Sn       4.38009106      15.66742070      15.68028176       0.11012883      -0.03267328      -0.06381062
Sn      15.90461315      15.65687741      15.64975596      -0.03761934      -0.00067723       0.06145984
Sn      27.42947387      15.64750576      15.65120308       0.01155073       0.00523520       0.01343573
Sn       4.38806092      19.82191934      15.65882384      -0.03972531       0.05090316       0.03044286
Sn      15.91659249      19.81872375      15.67942566      -0.05607170       0.05638612      -0.06941879
Sn      27.40998651      19.84273112      15.65191033       0.04145115      -0.05479760       0.03003946
Sn       4.39094413       3.12531830      20.01974203       0.01302969       0.03089652       0.01108273
Sn      15.91510926       3.14521853      20.03508456      -0.02114642      -0.05081998       0.00186907
Sn      27.41918854       3.13206281      20.01535854      -0.01008152       0.02553167       0.05167992
Sn       4.38103876       7.29284639      20.01880358       0.07707782       0.03679342       0.02668987
Sn      15.90959174       7.28519125      20.02271578      -0.04182817       0.08261479       0.00123439
Sn      27.43839736       7.31552851      20.01732747      -0.06175358      -0.05527934       0.03495098
Sn       4.37698554      11.48299684      20.00000503       0.08174900      -0.01965108       0.11284367
Sn      15.91819723      11.47626267      20.04149232      -0.05477804      -0.01488040      -0.06779323
Sn      27.40596745      11.48758000      20.02217423       0.08500052      -0.04040966      -0.03527743
Sn       4.38764376      15.63878925      20.02913679      -0.02900328       0.02419003       0.01871285
Sn      15.91385706      15.67033896      20.03325982      -0.05146673      -0.05067191      -0.08765409
Sn      27.41729815      15.64244906      20.00949440       0.06315591       0.05001257       0.01507746
Sn       4.40568651      19.81879508      20.03798161      -0.04376719       0.04075422      -0.03726837
Sn      15.91234641      19.82987585      20.02011063      -0.04011940       0.01918849      -0.01374847
Sn      27.42984384      19.82642211      20.01948718      -0.00627948      -0.02006970       0.01823116
Sn      10.15598502       3.12878054       3.95434379       0.01116791       0.02141610       0.02460539
Sn      21.67116466       3.12958040       3.96721624      -0.00028046      -0.00856847      -0.05961618
Sn      33.17676922       3.11812905       3.97967788       0.06930604       0.01782935      -0.06151194
Sn      10.16449109       7.31314725       3.95844903      -0.07447052      -0.04749204      -0.00556943
Sn      21.66216322       7.31813268       3.95878884       0.06923819      -0.04775723       0.01524639
Sn      33.17498226       7.32303175       3.96185036       0.00515634      -0.09595371      -0.01187564
Sn      10.16670923      11.46441462       3.96750899      -0.00685068       0.06606590      -0.00799717
Sn      21.68587722      11.47869605       3.95968709      -0.11796247      -0.02143061       0.03291525
Sn      33.16963030      11.48922197       3.95462586       0.07031044      -0.02265613       0.01362340
Sn      10.14807689      15.64014266       3.97789609       0.03530037       0.03977944      -0.01603076
Sn      21.67671525      15.65217183       3.95078565      -0.07778609       0.05506339       0.04467238
Sn      33.19666689      15.64882836       3.95127509      -0.05398224       0.00315159       0.03277158
Sn      10.13140380      19.82011717       3.94778076       0.08215983       0.03687727       0.01960762
Sn      21.65893819      19.83402091       3.95857314       0.08663840      -0.01497668       0.03231999
Sn      33.18486475      19.81934347       3.96297883      -0.03837881       0.02101939       0.00057618
Sn      10.16823398       3.12673540       8.32727531      -0.10647390       0.03836777       0.02923913
Sn      21.64951112       3.14542132       8.31865895       0.09942063      -0.09464475       0.04556357
Sn      33.19181315       3.12898846       8.32954681      -0.11255156       0.03328524      -0.03104961
Sn      10.15573510       7.29978500       8.33435008      -0.00016810       0.00626751      -0.00217884
Sn      21.65757655       7.31208874       8.31952897       0.01262459      -0.02267746       0.02265556
Sn      33.18480340       7.29968947       8.32393078      -0.04601997      -0.01961895      -0.00308776
Sn      10.13827804      11.48087411       8.32387290       0.06173090      -0.01118089       0.08159811
Sn      21.65976486      11.47784826       8.32477106       0.02554292       0.03218129       0.03584271
Sn      33.17514425      11.47711096       8.31337550       0.03623500      -0.00424780       0.05189322
Sn      10.17248231      15.66307887       8.32616196      -0.10993892      -0.03845642      -0.04434297
Sn      21.67688753      15.63269516       8.29785422      -0.03186107       0.05552434       0.03379376
Sn      33.17731491      15.63870204       8.32106496       0.01531836       0.09017026       0.07341729
Sn      10.15108154      19.83578097       8.31204838       0.01787850      -0.04324239       0.03019455
Sn      21.66916270      19.82672072       8.32690611      -0.05057672       0.01778906      -0.03524777
Sn      33.17611010      19.84040817       8.32239593       0.05048540      -0.07060466      -0.00498092
Sn      10.16676680       3.12231637      12.69196317      -0.10795125       0.01012837      -0.09088757
Sn      21.66456971       3.12694284      12.69085805       0.05834788       0.00534047       0.01187904
Sn      33.17831608       3.10360061      12.65390622       0.03080738       0.10011056       0.06597591
Sn      10.16174920       7.31661199      12.70340831      -0.06765925      -0.00479675      -0.12033947
Sn      21.66499111       7.29138305      12.68033906      -0.02826209       0.00894715      -0.01509008
Sn      33.18142206       7.29423902      12.70102065      -0.08779635       0.02223028      -0.05133730
Sn      10.17142000      11.48318135      12.68442626      -0.12051561      -0.02795442      -0.04090833
Sn      21.65221673      11.49386288      12.68529797       0.05004532      -0.01352950       0.01612567
Sn      33.17841617      11.48321028      12.67867778       0.05657730      -0.04734403       0.01092938
Sn      10.15049373      15.63806301      12.69540577       0.00950697       0.03025438      -0.05294893
Sn      21.66412229      15.66407569      12.68252354       0.05193407      -0.06355483       0.05924184
Sn      33.17994582      15.64036451      12.69213247      -0.02065926       0.10444935      -0.02465009
Sn      10.14026658      19.82171260      12.68454537       0.04483176       0.04723947      -0.04924042
Sn      21.66637864      19.80951585      12.68222684      -0.05181246       0.05425740       0.00421471
Sn      33.18926012      19.82279344      12.68228758      -0.04047143      -0.02946380       0.01874004
Sn      10.15064904       3.12896066      17.03533362       0.08885788       0.01631615       0.05248091
Sn      21.66480293       3.14016099      17.03512702       0.09601714      -0.03687810       0.04686327
Sn      33.17756300       3.11640395      17.05505260       0.00473978       0.04850127       0.01200742
Sn      10.14810139       7.29580740      17.04656144       0.01495683       0.04428593       0.02567753
Sn      21.65313039       7.29397445      17.03103744       0.06565173       0.04456118       0.09572753
Sn      33.17064002       7.31788278      17.03830760       0.05928014      -0.07683040       0.04121379
Sn      10.15368723      11.47003553      17.05323412       0.01880516       0.02141951      -0.01274308
Sn      21.65490558      11.47879082      17.04616729       0.00242572       0.01554886       0.01642042
Sn      33.20458587      11.48470279      17.03970974      -0.06744181      -0.00976812       0.01619030
Sn      10.15587547      15.67386943      17.02934242      -0.04485029      -0.11306323       0.07630878
Sn      21.65674158      15.65011871      17.04146790       0.06651406      -0.01737343       0.02412830
Sn      33.17798025      15.63944536      17.05967834       0.04501400       0.08417917       0.01015799
Sn      10.13479889      19.82457469      17.05609709       0.12942797       0.03959942       0.03148570
Sn      21.66486455      19.81678288      17.03215202       0.02500009       0.04176469       0.04143146
Sn      33.17900782      19.81900653      17.04769109       0.02595804       0.00633367      -0.01338355
Sn      10.13501046       3.13835062      21.40789816       0.04596345      -0.07545680       0.01499749
Sn      21.66706476       3.14463103      21.40236470      -0.03783906      -0.05770234      -0.00296814
Sn      33.17404965       3.12474262      21.40481739       0.03284352       0.00190956       0.01402420
Sn      10.14811533       7.29600242      21.38651181       0.03462174       0.00723618       0.06058855
Sn      21.65955711       7.30790766      21.40810524       0.00247008      -0.00851620      -0.00939488
Sn      33.19330336       7.32386427      21.41433600      -0.08628020      -0.11884093      -0.01479635
Sn      10.16285018      11.48606628      21.42384165      -0.04992834      -0.03268088      -0.03854916
Sn      21.68367493      11.48791019      21.41380646      -0.04259631       0.01532400      -0.04928243
Sn      33.17925549      11.47798517      21.40336429       0.00823880       0.04146733       0.04264754
Sn      10.15523749      15.64528420      21.40483160      -0.00235866       0.00286555      -0.02647960
Sn      21.64161470      15.66971858      21.40453791       0.03346485      -0.04442799      -0.00457962
Sn      33.18586362      15.66706555      21.40974559      -0.04554020      -0.06143096      -0.04477882
Sn      10.16346841      19.81415944      21.43071643      -0.06912311       0.03318428      -0.09590385
Sn      21.67603750      19.82866885      21.42099345      -0.02891081      -0.01892058      -0.06283026
Sn      33.16962147      19.82369067      21.42118516       0.09735813       0.03873127      -0.03530661
Sn       1.34747814       1.04878027       0.40353362       0.06903449       0.02682780      -0.00036291
Sn      12.90198242       1.02734614       0.41430816      -0.10288006       0.04923018      -0.05751320
Sn      24.39283688       1.03870560       0.38599181      -0.00355865       0.03590144       0.05523216
Sn       1.35527022       5.22130005       0.38708853       0.07577271      -0.00598523       0.06424441
Sn      12.88969301       5.21063517       0.38608152      -0.08055383      -0.00883478       0.03007611
Sn      24.39315349       5.22063190       0.39543832       0.00109760      -0.02360150       0.03352144
Sn       1.36649085       9.39831605       0.40903607       0.01901594       0.01145292       0.02731588
Sn      12.87918921       9.38091175       0.39897280      -0.03498493       0.05220378      -0.00027099
Sn      24.40313808       9.37674672       0.38930577       0.00821581       0.01843023       0.03762218
Sn       1.35895688      13.56336489       0.39060151       0.02870069       0.04860808       0.05830910
Sn      12.88936057      13.54939178       0.38241467      -0.07144476       0.02820167       0.03795296
Sn      24.39509270      13.56368658       0.38366542       0.03498470       0.04964872       0.05782127
Sn       1.36008126      17.73552181       0.39427887       0.02459908       0.04659902       0.03540434
Sn      12.88380898      17.73291646       0.41299022       0.00982516       0.01611741      -0.01907670
Sn      24.40331363      17.73146112       0.39915697       0.02473195       0.03680276       0.02191640
Sn       1.36738890       1.05532291       4.75331191      -0.01023040      -0.03474809       0.01828672
Sn      12.88996355       1.04359424       4.77423140      -0.03282545       0.00224469      -0.06251845
Sn      24.41134050       1.04514548       4.75669291      -0.08388572       0.00720935       0.00191781
Sn       1.37121480       5.21546033       4.77611880      -0.05354590       0.01228638      -0.06710617
Sn      12.88307487       5.21320840       4.75471958       0.05682239       0.02501955       0.01492345
Sn      24.38630123       5.22283042       4.75111562       0.07186303      -0.03649003       0.03455716
Sn       1.37713023       9.37842462       4.76058815      -0.04214748       0.04161161      -0.00997989
Sn      12.89379240       9.36983150       4.77949839       0.01312623       0.09745566      -0.03395866
Sn      24.39417873       9.39276493       4.76503023       0.06637703       0.01383048       0.01805340
Sn       1.37341004      13.56818195       4.76928958      -0.01699419      -0.03670432      -0.06720843
Sn      12.88748087      13.58305192       4.76453901      -0.04513317      -0.06872994       0.01032396
Sn      24.41807794      13.57445390       4.74125823      -0.02616824      -0.03575316       0.06899404
Sn       1.39225977      17.73378881       4.77427117      -0.12700078       0.01498780      -0.04886001
Sn      12.88255810      17.75014315       4.75243094       0.00193721      -0.06911112      -0.00304668
Sn      24.40468903      17.73700035       4.77510576      -0.06476482       0.02242674      -0.03492868
Sn       1.37053543       1.05253512       9.09877885      -0.01239107      -0.07342982       0.04941078
Sn      12.88143444       1.04728121       9.12265576      -0.00489862      -0.04288104       0.02120734
Sn      24.40804316       1.03951665       9.12090748      -0.09538848       0.06713950      -0.04776110
Sn       1.37796101       5.19447794       9.12631312      -0.09082128       0.04335756       0.00877653
Sn      12.87895132       5.20814165       9.12378506      -0.03743626       0.05990414      -0.03149670
Sn      24.41070610       5.22765627       9.11906848      -0.06752634      -0.06905120       0.00780821
Sn       1.37490615       9.40003465       9.11954590      -0.01416340      -0.04841835       0.02959530
Sn      12.87535936       9.38500163       9.12879815       0.00636406       0.04751500      -0.04444671
Sn      24.39801012       9.38089215       9.10357099      -0.00375559       0.03303774       0.05950695
Sn       1.37446706      13.55997533       9.12372349      -0.01798286       0.05144673      -0.01613626
Sn      12.89468723      13.55235387       9.11996824      -0.05795016       0.04492165      -0.05182110
Sn      24.39672464      13.56924054       9.13281121       0.04191175       0.01072560      -0.04212991
Sn       1.35285423      17.74523023       9.13073485       0.04435375      -0.01580972      -0.01169844
Sn      12.88042639      17.73815778       9.12460411       0.00908298       0.01642659       0.00646291
Sn      24.40187976      17.74535578       9.12603242      -0.02730614      -0.02513768      -0.05617306
Sn       1.35632902       1.05307836      13.49319133       0.00631933      -0.02113548      -0.02643861
Sn      12.88415099       1.02823414      13.48037604       0.01324480       0.01266778      -0.02601132
Sn      24.40037564       1.03172969      13.47792211      -0.00580387       0.08924529      -0.04047758
Sn       1.35205505       5.22333775      13.48318305       0.02851207      -0.03599273      -0.00834024
Sn      12.86583233       5.22077948      13.48095840       0.12152488      -0.01400875      -0.01928726
Sn      24.40359573       5.21334951      13.47350870       0.00889617       0.02125903       0.03521827
Sn       1.35844030       9.38597227      13.48171174       0.02487952      -0.01444209       0.01250947
Sn      12.88376975       9.38944677      13.47729030       0.02717010       0.00027002      -0.00974942
Sn      24.39491755       9.41643122      13.47381624      -0.02609239      -0.09099307       0.03056928
Sn       1.36056902      13.59838165      13.48573363       0.05359782      -0.15543294       0.00002368
Sn      12.86849036      13.57386998      13.47242310       0.08015988      -0.03352952       0.03161369
Sn      24.40752220      13.56333349      13.47712554      -0.05041360      -0.00752207       0.02696858
Sn       1.38224039      17.74519626      13.49125339      -0.09199636       0.00892797      -0.06197419
Sn      12.88663936      17.73508781      13.48763704       0.01455551       0.05283363      -0.06017528
Sn      24.41052374      17.74087963      13.49953992      -0.06300927      -0.04219578      -0.06709058
Sn       1.37465362       1.04529552      17.84514224       0.00540883       0.03269967       0.00577229
Sn      12.88366254       1.03066330      17.84172665      -0.06147627       0.02116597      -0.01417209
Sn      24.40064345       1.03901484      17.84600414      -0.04563120       0.01851910      -0.01705009
Sn       1.36636182       5.22500175      17.84925850      -0.06537000       0.00063227      -0.00363327
Sn      12.88396170       5.20359270      17.86053460      -0.01967101       0.01511383      -0.05228415
Sn      24.39701267       5.21645597      17.83920217       0.00449042       0.03230497      -0.02257318
Sn       1.36126463       9.40679455      17.85648782       0.03146837      -0.04390585      -0.10126086
Sn      12.88673410       9.39027897      17.84881855       0.02802068      -0.00927707       0.00799457
Sn      24.39916955       9.38945174      17.84600843      -0.03572905      -0.01835705      -0.04710358
Sn       1.36173717      13.56796575      17.84466958       0.01158228       0.02039184      -0.00068484
Sn      12.88831952      13.55925174      17.84972874       0.01955102      -0.00730036       0.01628479
Sn      24.38936847      13.55971744      17.83733812       0.07696931       0.05794092      -0.00413009
Sn       1.35542823      17.74968887      17.83293685       0.03408008      -0.01385637       0.05900630
Sn      12.87530100      17.75208633      17.83692155       0.02896259      -0.05945151       0.02026615
Sn      24.39655016      17.72941196      17.85095689       0.04150829       0.03801010      -0.03561270
600
Lattice="34.548424260000004 0.0 0.0 0.0 20.870445700000005 0.0 0.0 0.0 21.8055194" Properties=species:S:1:pos:R:3:forces:R:3 mlfcs_configuration_id=4 mlfcs_sampling_method=gaussian pbc="T T T"
Se       4.12509036       1.05101919       0.11185450      -0.08320061      -0.01468927      -0.02351823
Se      15.63350031       1.03838596       0.09832951       0.01745247       0.03092366       0.00450366
Se      27.16180489       1.05127777       0.09954616      -0.04465255      -0.02417716       0.04413960
Se       4.11702131       5.21471772       0.09519710      -0.02017320       0.00080350       0.03382674
Se      15.63454093       5.21356394       0.09695384       0.05559372      -0.00065427       0.03222027
Se      27.13411451       5.20208084       0.10276494       0.02333049       0.04636291       0.01449887
Se       4.11577205       9.38305500       0.11298660       0.00885083      -0.00441215      -0.07079279
Se      15.63210895       9.39757686       0.10465010       0.03732692       0.02676419      -0.01348088
Se      27.14103466       9.39294919       0.09385246       0.03557529      -0.00380336       0.04609216
Se       4.12201738      13.55652566       0.11566153      -0.02164251       0.06132165      -0.02753090
Se      15.62937986      13.57652249       0.09525297       0.09078381      -0.03522115       0.09043665
Se      27.14212814      13.56970650       0.11818418       0.05164873      -0.02153454      -0.03588217
Se       4.13328908      17.74039995       0.12485666      -0.01884505      -0.01788178      -0.05520143
Se      15.62986777      17.75097397       0.09705740       0.06508108      -0.02391387       0.04061267
Se      27.15310784      17.71656936       0.09526330      -0.05566850       0.10186736       0.06398465
Se       4.12128976       1.03050534       4.47185258       0.00629176       0.07741956      -0.01964390
Se      15.64182900       1.03861653       4.45789356      -0.05674976       0.04501221       0.01046865
Se      27.14416397       1.03397161       4.46657095       0.04726838       0.04149513      -0.03309732
Se       4.11764390       5.21465877       4.48432668       0.01305884      -0.01326282      -0.05153004
Se      15.62557038       5.23163320       4.45717069       0.00030550      -0.09062314       0.05980524
Se      27.14963361       5.22954992       4.47889666      -0.05108324      -0.00346968      -0.03853135
Se       4.11242042       9.39735871       4.47179488      -0.03497238      -0.06141386       0.00685421
Se      15.62736502       9.39796751       4.48620801       0.00020124      -0.01269588      -0.08791093
Se      27.15362284       9.39747157       4.47430464       0.02185609      -0.03374461      -0.05027423
Se       4.10201323      13.57049940       4.45741549       0.00068206      -0.03719007       0.03176542
Se      15.62686555      13.58751657       4.46505047       0.05791818      -0.11986404       0.04668216
Se      27.14150409      13.57742298       4.45810632       0.01515686      -0.03960179       0.01064926
Se       4.11214880      17.75247681       4.46801076      -0.00940335      -0.07383617      -0.04760448
Se      15.61714844      17.74542619       4.46361843       0.02476140      -0.02845340       0.01058296
Se      27.16430435      17.73392442       4.47809535      -0.07050350       0.02359516      -0.06620383
Se       4.13437998       1.03512030       8.82675484      -0.09013909       0.01962017       0.01795323
Se      15.63665067       1.03505627       8.83138992      -0.03169375       0.05222435       0.00253788
Se      27.14665663       1.04117906       8.82917635       0.05261827      -0.01559397       0.01331977
Se       4.11733564       5.21935768       8.82269870       0.00340145      -0.03280731       0.03645295
Se      15.62721270       5.21653299       8.82823939      -0.02857651      -0.00191140       0.00984449
Se      27.14451734       5.22095827       8.81053935      -0.01688147      -0.02629237       0.07714358
Se       4.10931833       9.38900873       8.82012581       0.09303594       0.01511439       0.01792794
Se      15.64905640       9.39199663       8.83045466      -0.07827255      -0.02580641      -0.02703219
Se      27.14407353       9.39165022       8.81653443       0.00159628       0.03535162       0.06571987
Se       4.11492482      13.55652707       8.82591293      -0.03158424       0.02380374       0.04535399
Se      15.60716525      13.55461712       8.84332623       0.19225542       0.04685240      -0.08628841
Se      27.15720981      13.57908754       8.84256418      -0.03821495      -0.07083009      -0.06465738
Se       4.12335287      17.73545760       8.81831446      -0.09120044      -0.04436312       0.06960211
Se      15.64423186      17.74063197       8.85362719       0.01772277       0.00093960      -0.07833205
Se      27.14525486      17.75971525       8.82711905      -0.04364789      -0.09345700       0.02158752
Se       4.12998348       1.06059665      13.17956135      -0.05493186      -0.06886888       0.01691221
Se      15.62791443       1.03329994      13.17749140       0.04336515       0.05473531       0.07085766
Se      27.15557650       1.04166345      13.19031451      -0.01799321       0.00252111       0.01497193
Se       4.12218539       5.19914500      13.20265851      -0.06161406       0.08885872      -0.06017509
Se      15.62927347       5.22304288      13.19599797       0.04312946      -0.01639414      -0.03536649
Se      27.16261380       5.21667030      13.16855447      -0.05094520       0.02104041       0.08467433
Se       4.11719427       9.39381508      13.17944824      -0.00917642      -0.01803339       0.05074647
Se      15.63423932       9.38819783      13.17636331      -0.04940713       0.02194430       0.10439309
Se      27.15562068       9.38617076      13.18572705       0.01639544      -0.00740855       0.02751217
Se       4.11199721      13.57825194      13.18938168       0.05403157      -0.05094804       0.00419030
Se      15.63355541      13.56149079      13.19441951      -0.07334741       0.01731264      -0.00984779
Se      27.16239902      13.57237576      13.19665952      -0.02024207      -0.01234302      -0.02437225
Se       4.12268530      17.72618386      13.18102966      -0.10110685       0.02208351       0.05906311
Se      15.63071454      17.73272765      13.17914548       0.03873611       0.05017131       0.08865538
Se      27.13018408      17.72652100      13.18722559       0.03222724       0.09578694       0.05921250
Se       4.11592873       1.03569919      17.55168398      -0.05162972       0.04677946       0.03854803
Se      15.62842608       1.05453547      17.54927847       0.01664832      -0.04967122      -0.00710370
Se      27.15586914       1.04566187      17.53687402      -0.03004568      -0.04091786       0.03850595
Se       4.11571641       5.20536263      17.54981352       0.08919022       0.06406520      -0.02057359
Se      15.62531311       5.22153850      17.53747118       0.01874259       0.02073525       0.03716347
Se      27.14905285       5.22344303      17.55997068       0.00077582      -0.06055916      -0.02123070
Se       4.10898132       9.39198552      17.55273620       0.02098455      -0.01011875      -0.01827172
Se      15.64823568       9.37699471      17.54178370      -0.08382219       0.07311234       0.07157957
Se      27.17695046       9.38907704      17.53198479      -0.14063789       0.05351080       0.10835281
Se       4.11079749      13.53820842      17.55330393      -0.04824783       0.11556215      -0.01411953
Se      15.64086226      13.55678053      17.54618749       0.01673595       0.07752093      -0.00582824
Se      27.15814238      13.54839500      17.53767901      -0.08849095       0.07213985       0.05653227
Se       4.11434184      17.73246294      17.54795606      -0.07108113       0.01289879      -0.00499917
Se      15.62012691      17.74212943      17.54940239       0.05895091       0.01961207       0.01061538
Se      27.15439774      17.74199029      17.55296163      -0.08092994      -0.00993517      -0.01028005
Se       7.38504609       3.13560022       4.25255748       0.05926569      -0.03765116      -0.00842038
Se      18.91398460       3.14115694       4.24867179       0.02714420      -0.02675304       0.02280338
Se      30.44530384       3.14511905       4.26339399      -0.09813087      -0.06307183      -0.01268715
Se       7.38970295       7.28290051       4.26665449       0.04467777       0.11016637      -0.02512128
Se      18.91676443       7.29731147       4.26760177      -0.00486285      -0.00055143      -0.07232667
Se      30.42317641       7.30052189       4.26111505       0.01744456       0.04661921      -0.09367675
Se       7.38837313      11.47775777       4.26675752       0.03116249       0.01838471      -0.04801989
Se      18.91776169      11.49132684       4.26720217       0.00325821      -0.06753655      -0.05556492
Se      30.43186938      11.45548517       4.24480842      -0.07030863       0.08821538       0.04384210
Se       7.40714250      15.63743921       4.25259922      -0.03331926       0.07259421       0.03533037
Se      18.91903539      15.66763743       4.25011595      -0.10570412      -0.05431036      -0.00049526
Se      30.42535712      15.65241726       4.25937528      -0.01121711       0.03449865      -0.01755079
Se       7.39796669      19.83752354       4.24787471       0.03262023      -0.05638635       0.03160965
Se      18.91685219      19.83148299       4.25186382      -0.09493819      -0.03326495       0.05872630
Se      30.44018910      19.82852045       4.26375460      -0.04063347      -0.01923874      -0.02252181
Se       7.40145020       3.13443835       8.61064611       0.00209752      -0.00021405       0.01415213
Se      18.90934286       3.14291827       8.62332513       0.02493346      -0.02690721      -0.02755873
Se      30.42156235       3.13248293       8.59323226       0.08162264      -0.04086240       0.08331358
Se       7.39376976       7.31437372       8.61571857       0.07306721      -0.01880458       0.00214139
Se      18.91682971       7.27459963       8.61304749      -0.04983458       0.10826322       0.02229429
Se      30.43517472       7.30941634       8.62659358       0.03862879      -0.03637653      -0.02113922
Se       7.39740658      11.47719602       8.60364885      -0.02170871       0.03104605       0.05319922
Se      18.91360537      11.46623683       8.59849132      -0.00597992       0.03492181       0.04570378
Se      30.42094021      11.49393943       8.61426441       0.05764051      -0.03609314      -0.01379854
Se       7.40170793      15.64780676       8.59906452      -0.01839412       0.00766573       0.06760004
Se      18.92501171      15.63121974       8.61142210      -0.04061027       0.11026984       0.02406174
Se      30.43124585      15.65524662       8.60970533       0.00391170      -0.00118596      -0.00825448
Se       7.38112955      19.81901993       8.60948245       0.13860378       0.03756285       0.04157186
Se      18.90791965      19.83673145       8.60483400       0.03503360      -0.04501738       0.03348438
Se      30.43480179      19.82861383       8.62657458       0.00993385      -0.01768577      -0.07775640
Se       7.39817784       3.13858561      12.97635170       0.04097205      -0.04642480       0.01016486
Se      18.91999451       3.11564489      12.95169112      -0.09577686       0.09161951       0.10876689
Se      30.43556747       3.13498613      12.98282893      -0.01356919      -0.03272941       0.00688285
Se       7.39425984       7.31966066      12.97347513       0.00828445      -0.05315790       0.00911607
Se      18.91985937       7.31070980      12.99526131      -0.02260350      -0.02288426      -0.07351918
Se      30.42862170       7.29823151      12.96309245       0.01266543       0.00935417       0.04291122
Se       7.41503283      11.48306669      12.98260452      -0.05857392      -0.00310700      -0.00539211
Se      18.94681762      11.48210303      12.96505069      -0.13566577      -0.01812331       0.06094713
Se      30.42983297      11.46910476      12.97411522       0.03233824       0.01922614       0.04514834
Se       7.39548327      15.64707148      12.96414108       0.03751866       0.02671444       0.05700188
Se      18.93157560      15.65593020      12.97581919      -0.04586245       0.00420981      -0.02459770
Se      30.43936838      15.65765239      12.98083081       0.00863442       0.00068909       0.01315656
Se       7.40635914      19.82837021      12.98477612      -0.12559646       0.00131883      -0.04937851
Se      18.92318170      19.82865805      12.97586996      -0.02019210      -0.02570537      -0.02557617
Se      30.44709598      19.82225185      12.98198704      -0.02059066       0.05325984       0.01989253
Se       7.40364825       3.12457872      17.33109956       0.00418609       0.02447747       0.03930515
Se      18.91211206       3.12575213      17.32459648      -0.00499934       0.05242382       0.07054325
Se      30.42527705       3.13333653      17.35183722       0.00651672       0.00392834      -0.07282643
Se       7.40505307       7.27876810      17.34559082       0.00740672       0.10716485       0.01423513
Se      18.91006906       7.30929424      17.33903643       0.01514784      -0.02591668      -0.00911669
Se      30.42986512       7.30374108      17.33895354      -0.03759213      -0.00164183      -0.00837782
Se       7.41295321      11.47865598      17.35003315      -0.03620995      -0.03270037      -0.03002252
Se      18.92504964      11.48552304      17.32131160      -0.06534151       0.00059348       0.10731223
Se      30.44295833      11.47427357      17.34633506      -0.06848782       0.01413763      -0.03601783
Se       7.38978383      15.64109098      17.35894167       0.08062228       0.03005698      -0.05518573
Se      18.90608075      15.66440279      17.34036199       0.06388369      -0.06022573       0.00722495
Se      30.42759080      15.65249343      17.32616684       0.06691690       0.01220596       0.07105823
Se       7.39937162      19.81620346      17.33522335       0.06795417      -0.00648077       0.05536514
Se      18.92490358      19.82957277      17.32435608      -0.02549799       0.01530579       0.07669465
Se      30.44030688      19.82695986      17.33375593      -0.05326484       0.01303889       0.01824549
Se       7.40697592       3.12900223      21.68862505      -0.01053821       0.00779341       0.04010482
Se      18.93412868       3.13050143      21.69946781      -0.10540990       0.01888079      -0.02308784
Se      30.42774095       3.14247396      21.69503288       0.04326689      -0.01324662      -0.02186710
Se       7.38405936       7.29797666      21.71354941       0.09068338       0.04204084      -0.04571894
Se      18.92397190       7.30221328      21.71401422      -0.08801505      -0.01490253      -0.05215398
Se      30.43927142       7.30209755      21.69862257      -0.09937034       0.01829265      -0.00257292
Se       7.40280234      11.47053371      21.70032672      -0.02229969       0.00666751      -0.00870839
Se      18.91873571      11.46198292      21.69838846      -0.02632699       0.07592467      -0.00978190
Se      30.42876144      11.48913326      21.68183670       0.01544565      -0.06771028       0.11344158
Se       7.39569410      15.64812417      21.70988238       0.05295586       0.04781092      -0.06163416
Se      18.91521512      15.67090267      21.70690380       0.03162429      -0.05733947      -0.02851732
Se      30.42768977      15.65533831      21.69674098      -0.01104843      -0.00528655       0.03068955
Se       7.40810312      19.81370888      21.69204471      -0.03266644       0.03508992       0.02119402
Se      18.92020748      19.83928843      21.67826198      -0.01254240      -0.04564522       0.05388744
Se      30.44553671      19.82562951      21.68144292      -0.08285283       0.01689671       0.05196397
Se       1.61142117       3.11538044       2.28683410       0.15594172       0.05774295       0.01767299
Se      13.15692089       3.13700631       2.28153627      -0.00731624      -0.05249791       0.04549772
Se      24.66264089       3.12654344       2.28736725       0.10922787       0.01744692      -0.02010607
Se       1.64374618       7.29687179       2.29604561       0.03294143       0.02604976       0.01202686
Se      13.15136590       7.29606627       2.28160723       0.02582229       0.04979669       0.00107882
Se      24.68446969       7.30343548       2.28008601      -0.01316049       0.01788204       0.05807215
Se       1.65069953      11.50028007       2.28912797      -0.06732093      -0.12195617       0.02492475
Se      13.16991830      11.48921336       2.28097475      -0.09099700      -0.02057125       0.05329407
Se      24.67398763      11.46602713       2.28498172      -0.04665100       0.07386131       0.02063642
Se       1.63517655      15.64891286       2.27953220       0.05968579       0.02538827       0.03260526
Se      13.15470890      15.65826405       2.28583623      -0.04703407      -0.03233585       0.00203056
Se      24.65507756      15.64548052       2.27183715       0.14105533       0.05224746       0.04094236
Se       1.64387905      19.83206403       2.28959663      -0.02204870       0.01362919      -0.02389370
Se      13.14970583      19.82949940       2.28233000       0.03960922      -0.00829200       0.01377471
Se      24.66233904      19.83445016       2.29521142       0.04209627      -0.04688325      -0.10113439
Se       1.65092741       3.12459081       6.65992865      -0.03427493      -0.00779269      -0.01823470
Se      13.15264405       3.13720931       6.64302590       0.07609546      -0.01017151      -0.02003561
Se      24.67148147       3.10646252       6.64511589      -0.06046325       0.11359690      -0.01060073
Se       1.64234935       7.30066294       6.66569691       0.03359612       0.00875199      -0.13640950
Se      13.14595521       7.29912763       6.63908630       0.08907715       0.01540413       0.05043076
Se      24.66808352       7.31507757       6.66291534       0.02599474      -0.03938599      -0.07813839
Se       1.63443053      11.47162251       6.63656374       0.04100583       0.01749196       0.02873209
Se      13.17064272      11.49006262       6.64707521      -0.08752192      -0.04035600      -0.03406823
Se      24.65976030      11.46578596       6.64984132       0.07624802       0.10769312      -0.03085531
Se       1.64693183      15.63228027       6.64492193      -0.00594718       0.10492337       0.03707651
Se      13.17376283      15.65076663       6.66303141      -0.10289002       0.03889766      -0.07868146
Se      24.68021175      15.64209892       6.64520831      -0.00566357       0.01990743       0.04567005
Se       1.64015151      19.81750575       6.63843635       0.00697057       0.03829101       0.04174592
Se      13.17264756      19.81725725       6.65891939      -0.08823515       0.06960681      -0.05264823
Se      24.66935645      19.82677447       6.65375347      -0.02171116       0.00489511      -0.03140506
Se       1.63545286       3.13635334      10.98877461       0.02605680      -0.02841966       0.11716361
Se      13.16197695       3.10598900      11.00697044       0.00841389       0.11878557       0.01116670
Se      24.68226372       3.13689725      10.99625480      -0.04876857      -0.02193983       0.03731722
Se       1.62974181       7.29787672      11.01110106       0.05668822      -0.01292273       0.02316139
Se      13.13726054       7.30463120      11.01235320       0.09405076      -0.03157898       0.00537083
Se      24.67089092       7.31001665      11.01147615       0.00792589      -0.03953030      -0.02308791
Se       1.63602191      11.45949069      11.01057304       0.03176566       0.12286504       0.04168103
Se      13.14804912      11.47306915      11.01403015       0.08167824       0.00181588       0.01247566
Se      24.68789462      11.47847198      11.01477955      -0.06457967      -0.01594130       0.02683740
Se       1.62699366      15.65539696      11.00863985       0.09909424      -0.02656323       0.02849204
Se      13.16987215      15.64753714      11.00682253      -0.01759982       0.04385708       0.05573261
Se      24.68430944      15.65202138      10.99815049      -0.09391149       0.03670529       0.02969863
Se       1.66695478      19.81624493      11.00859190      -0.13954947       0.03294215      -0.01120530
Se      13.16104675      19.82970704      11.00734147      -0.02398038      -0.01416506       0.03742476
Se      24.67187369      19.82468154      10.99807957      -0.00679317      -0.04634759       0.04393501
Se       1.66294064       3.12847439      15.37631210      -0.13574396      -0.03877753      -0.06674168
Se      13.15423334       3.12712666      15.36578835       0.00867143       0.03900545       0.00821728
Se      24.65822283       3.12906809      15.36627271       0.05343836       0.01801229       0.01975764
Se       1.65315370       7.29279644      15.36457131      -0.02365759       0.03911282       0.02673914
Se      13.14859547       7.31918874      15.36164870       0.05090757      -0.05764749       0.02312212
Se      24.67934429       7.31446506      15.36888156      -0.07323085      -0.03000719      -0.03494534
Se       1.62767034      11.46521104      15.37894043       0.02715801       0.07765687      -0.07232634
Se      13.14497393      11.48277285      15.37148628       0.05129833      -0.05220447      -0.00379719
Se      24.67749262      11.48356843      15.36100608      -0.00645986      -0.04535765       0.05195497
Se       1.63168317      15.66009099      15.36404934       0.01844206      -0.02849996       0.00990359
Se      13.13007839      15.65942927      15.35998017       0.12208700      -0.00824145       0.05845440
Se      24.67839265      15.66686994      15.37051041      -0.00402045      -0.04287104       0.01630305
Se       1.65139611      19.82856884      15.38621708      -0.01975531      -0.00946120      -0.09049564
Se      13.14695880      19.82694871      15.37707440       0.07762446       0.02435664      -0.01186707
Se      24.67181717      19.83855305      15.36602239      -0.01141484      -0.03291272       0.02290305
Se       1.66213216       3.15189628      19.73426739      -0.09751805      -0.10785852      -0.03022352
Se      13.16310588       3.14259102      19.71957469      -0.01947744      -0.04678226       0.00092470
Se      24.66060129       3.14323849      19.73418655       0.05298244      -0.08477619      -0.03059015
Se       1.63917340       7.30487467      19.70758625       0.06798857      -0.01623295       0.14402687
Se      13.15567425       7.29723297      19.74062738       0.00307857       0.05620093      -0.07505898
Se      24.68367160       7.31053024      19.73540125      -0.07133680      -0.02214298      -0.05216913
Se       1.62646498      11.48475901      19.73774064       0.04971475      -0.02841218      -0.01172660
Se      13.17003180      11.50003468      19.71452106      -0.04113238      -0.09549604       0.01463695
Se      24.66983652      11.47142991      19.73317174       0.03944484       0.02361800      -0.01072543
Se       1.64157247      15.65060090      19.74172271       0.00483504       0.00139666      -0.01381778
Se      13.14656573      15.64253051      19.72120441       0.05530681       0.04741876      -0.02012982
Se      24.67011802      15.64065582      19.73096095       0.04576444       0.05032056      -0.02173994
Se       1.63978355      19.81916571      19.74018433      -0.03147571       0.00170593       0.00441858
Se      13.15698487      19.83765733      19.72949617       0.05825507      -0.05156789      -0.00912456
Se      24.67347934      19.82140304      19.73137620       0.07390513       0.04974959      -0.00188108
Se       9.88181602       1.03951639       2.08049833       0.00459496       0.00051720      -0.00889450
Se      21.38270766       1.05122024       2.06951515       0.07826638      -0.03486938       0.00687062
Se      32.91549334       1.04423950       2.09052374      -0.03879865       0.00699347      -0.06244931
Se       9.86315303       5.20295710       2.06915203       0.02886309       0.09377565       0.03141884
Se      21.37698902       5.20389152       2.08152971       0.04531942       0.09267299      -0.04447122
Se      32.90693476       5.21292206       2.07144458      -0.03381296       0.04420439       0.00313538
Se       9.86872133       9.40831170       2.06795915      -0.02040708      -0.09858986       0.02589050
Se      21.37761379       9.39976852       2.07315665       0.09335978      -0.05476854      -0.00198191
Se      32.92736428       9.38654595       2.08377405      -0.06385216      -0.01586754      -0.07278077
Se       9.88551568      13.56068379       2.06788500      -0.00152771       0.04883300       0.06199351
Se      21.39824879      13.57164607       2.06120810      -0.07585288      -0.04597257       0.03412357
Se      32.89569219      13.54053285       2.08126807       0.00204143       0.13775261      -0.03595929
Se       9.87207543      17.73836479       2.05839976      -0.00547727       0.00039882       0.09339373
Se      21.37985410      17.73520670       2.06859095       0.09317285       0.04001976      -0.02757485
Se      32.90815491      17.74582097       2.09801033      -0.01208582      -0.04462308      -0.10062104
Se       9.87449353       1.05478376       6.42811836       0.01007036      -0.05625092       0.05668135
Se      21.37408566       1.04010671       6.42044087       0.08978319       0.00964704       0.08002839
Se      32.90712328       1.03582519       6.41687537       0.00742535       0.03359195       0.08108428
Se       9.89205396       5.21234325       6.42004189      -0.06376598       0.02894093       0.08598928
Se      21.39981684       5.21043273       6.44731975      -0.09246354       0.01130731      -0.05949834
Se      32.89964260       5.21230989       6.43986640       0.03160778       0.01630813       0.00191508
Se       9.88062590       9.39949285       6.43552067       0.00384082      -0.08548163       0.01078678
Se      21.39612129       9.39926430       6.43842378      -0.04269220      -0.07924902      -0.06734775
Se      32.90554996       9.37735506       6.44240983      -0.00762872       0.06267143       0.01381802
Se       9.87511544      13.56176099       6.44919575      -0.01177731       0.02791029      -0.06500351
Se      21.37655679      13.58233751       6.43619535       0.02935132      -0.12411243       0.00745442
Se      32.91015173      13.56194671       6.41974736      -0.03119928       0.02991883       0.07753264
Se       9.87329761      17.74333374       6.44318034      -0.03621342       0.01447337      -0.04567928
Se      21.38885479      17.71806089       6.42100147       0.01147819       0.11828903       0.05545195
Se      32.92749674      17.72906093       6.45068858      -0.12164080       0.04197288      -0.07163064
Se       9.86535284       1.04180517      10.80377405       0.05837613       0.03220953      -0.04086664
Se      21.38263318       1.05955188      10.79827925       0.02416210      -0.09387513      -0.02518024
Se      32.91158505       1.04095366      10.80410917       0.00029233       0.00126217       0.00885232
Se       9.89048163       5.21640601      10.81481909      -0.07713517       0.04607101      -0.09052570
Se      21.38471917       5.22535983      10.80241311       0.04571242      -0.04709884      -0.04457259
Se      32.89629072       5.21985697      10.79759562       0.03058423      -0.05510794      -0.04119838
Se       9.86616178       9.39538804      10.79898486       0.00604525      -0.01601174       0.00761078
Se      21.39010926       9.39112224      10.79662186      -0.00279623       0.00827250       0.00015516
Se      32.90329955       9.39320635      10.79108282      -0.02421630      -0.02384195      -0.00953507
Se       9.90126180      13.55180382      10.79167460      -0.16085061       0.07324676       0.00616177
Se      21.38577770      13.58630208      10.78432062       0.00669684      -0.08099878       0.07907404
Se      32.91123577      13.56838109      10.80085799       0.05032067      -0.03933560       0.01032025
Se       9.88705714      17.75214458      10.79301240      -0.04971789      -0.08412600      -0.02242582
Se      21.39277530      17.72134527      10.79851290      -0.00407770       0.09490308       0.01866567
Se      32.89903665      17.73812247      10.78066825       0.07255123       0.02403146       0.09403034
Se       9.87874243       1.02666404      15.16010869      -0.02485775       0.05941280      -0.01631990
Se      21.37857007       1.03513332      15.17017317       0.07950598       0.03227690      -0.05327538
Se      32.91285572       1.05512176      15.17422312      -0.05937050      -0.04793823      -0.09829341
Se       9.86696532       5.23270859      15.14397079       0.05743348      -0.05182444       0.07218119
Se      21.39829613       5.21278549      15.14932284      -0.07224749       0.04413088       0.01083340
Se      32.91312124       5.22716839      15.16777853      -0.04644721      -0.05963359      -0.06211297
Se       9.87684230       9.39312758      15.16389451       0.02515702      -0.02970034      -0.00074726
Se      21.39387277       9.39722157      15.16066584       0.00903110       0.00927000      -0.03181776
Se      32.91540438       9.37553593      15.15731311      -0.03894190       0.03737433      -0.01660797
Se       9.86085524      13.56866417      15.17504515       0.05450406      -0.00123527      -0.06899957
Se      21.38609428      13.56716967      15.16619071       0.04175763       0.02330848      -0.02540525
Se      32.88629932      13.56067605      15.16227100       0.08815025       0.00942221      -0.02088428
Se       9.84572376      17.73021821      15.16963443       0.15332438       0.03269594      -0.03785818
Se      21.40086509      17.74372947      15.16744782      -0.00296503      -0.01017562       0.00205153
Se      32.90912759      17.74554024      15.15546931      -0.01274480      -0.01346373       0.00012374
Se       9.87585183       1.03730603      19.53236456      -0.00201656       0.03397123      -0.08589871
Se      21.40605072       1.05742886      19.51564864      -0.07368560      -0.07619050       0.00242460
Se      32.89743880       1.05639947      19.52516880       0.01877639      -0.03960114      -0.01238701
Se       9.87797955       5.21138255      19.52398636       0.00070498       0.02925722      -0.00562992
Se      21.37998234       5.22405949      19.53351859       0.01522143      -0.03091442      -0.09432141
Se      32.92328700       5.22480411      19.50590951      -0.09961685      -0.00070206       0.05657845
Se       9.87666701       9.41320483      19.51104361      -0.02289056      -0.15602604      -0.01688566
Se      21.39024331       9.40594325      19.52590106      -0.01350686      -0.05787192      -0.02283015
Se      32.93177811       9.38447932      19.50983217      -0.15317397       0.03724767       0.02756507
Se       9.88693496      13.55393836      19.51776205      -0.04614505       0.03904124      -0.00382086
Se      21.39017866      13.57625705      19.52587241      -0.04672928       0.00410030      -0.03151627
Se      32.91154719      13.56187284      19.53187977      -0.04210564       0.04236734      -0.02955922
Se       9.91495195      17.74689911      19.52072645      -0.17746161      -0.04630572      -0.01530073
Se      21.37785650      17.73361148      19.51759262       0.08615106       0.02848912       0.03019172
Se      32.90163054      17.73982551      19.53750989      -0.03988130      -0.02586660      -0.11605983
Sn       7.13717034       1.04204140       1.77059558      -0.01308295      -0.01183096       0.00143801
Sn      18.65421377       1.04313919       1.76541337      -0.08448905       0.00358850       0.05650759
Sn      30.16410581       1.05388660       1.75841929       0.01908183      -0.02376466       0.05261898
Sn       7.11645313       5.21661433       1.79002349       0.01206991      -0.02898021      -0.01254726
Sn      18.63568263       5.20939745       1.78995007      -0.02951615      -0.00940705       0.00251271
Sn      30.15229829       5.22313942       1.77156322       0.02874991      -0.02800341       0.02969820
Sn       7.11117534       9.39936070       1.78520358       0.02499822      -0.01854306      -0.00649039
Sn      18.65006465       9.38648208       1.77472733      -0.11542188       0.01708911       0.05294979
Sn      30.17058870       9.37657842       1.79519299      -0.00005136       0.10521164      -0.07180418
Sn       7.13790372      13.57449805       1.77580030       0.00031018      -0.05914883       0.03660003
Sn      18.63267485      13.56379659       1.76972798       0.06240375       0.01572065       0.01675788
Sn      30.14736457      13.57234449       1.78917187       0.02079079      -0.05735957      -0.05766338
Sn       7.11420292      17.74674751       1.78722141       0.04731235      -0.01144319       0.00330488
Sn      18.65593895      17.74567766       1.79326419      -0.13223315       0.00979516      -0.01357668
Sn      30.16175229      17.74978558       1.76980721      -0.00788488       0.00220300       0.02726293
Sn       7.12348123       1.04323990       6.14134476       0.00877759      -0.00767995       0.00609642
Sn      18.64527896       1.04997353       6.14770483      -0.04955530       0.00451123      -0.04852986
Sn      30.15521207       1.03627243       6.15475412       0.00622643       0.04796510      -0.03663033
Sn       7.12819600       5.20753273       6.14184538       0.04058830       0.00336705       0.02597196
Sn      18.62340710       5.21807258       6.14179846       0.10186389      -0.03923039       0.00834558
Sn      30.15123684       5.23356487       6.13222072      -0.01872535      -0.07568788       0.08784213
Sn       7.13176260       9.41367509       6.15455494      -0.01156163      -0.08981788      -0.00855277
Sn      18.64052470       9.38046732       6.13016164      -0.00029002       0.06217360       0.04569992
Sn      30.15286600       9.38493800       6.13658679       0.02652646       0.01636600       0.05766405
Sn       7.12143554      13.56487468       6.14863438       0.01727369       0.00762225      -0.00622436
Sn      18.62846213      13.55907471       6.14218554       0.04042990       0.05617265       0.01633013
Sn      30.15502666      13.58426139       6.14610472       0.03046320      -0.09255599      -0.02093423
Sn       7.10856277      17.74416810       6.14923890       0.04228942       0.00505783      -0.06050671
Sn      18.63958881      17.72785232       6.16136281       0.00589776       0.04460033      -0.05202109
Sn      30.14628267      17.74659401       6.14578276       0.08421265       0.00671435      -0.02128287
Sn       7.13070678       1.06069831      10.51050253      -0.07269395      -0.06460896      -0.04215386
Sn      18.63525345       1.05468965      10.49857514      -0.01044973      -0.02671799       0.01481360
Sn      30.15861709       1.03069889      10.49455333      -0.00219790       0.08273264       0.02220132
Sn       7.12521254       5.22139974      10.48786223       0.01506296       0.01145989       0.04657148
Sn      18.64581297       5.20952458      10.51768302      -0.06369780       0.02864323      -0.00695560
Sn      30.15346187       5.20648265      10.50564418      -0.03075698       0.01571077      -0.04168413
Sn       7.11553632       9.40449746      10.50489144       0.01906077      -0.02023137      -0.00298573
Sn      18.63932333       9.39772602      10.49483666       0.00501182      -0.03736581      -0.02770770
Sn      30.14408998       9.39589153      10.49388943       0.02843975       0.01324857       0.01742177
Sn       7.11369857      13.57426471      10.51013678       0.13700292      -0.02927031      -0.03876466
Sn      18.62830180      13.55970579      10.49584882       0.05099937      -0.01943048       0.00084475
Sn      30.17474471      13.57495726      10.50067769      -0.09349670      -0.01108276       0.04698931
Sn       7.13046062      17.72642443      10.49815968       0.00358830       0.03593243      -0.02468890
Sn      18.64188872      17.74450860      10.50391155       0.02723085      -0.02889248      -0.04580440
Sn      30.15946165      17.74076966      10.50325036      -0.03934301      -0.01899251       0.03613757
Sn       7.12173722       1.03936708      14.86830939       0.03022591       0.04785848       0.01479960
Sn      18.64494825       1.04561332      14.85420405      -0.05757705      -0.00691791       0.04189486
Sn      30.14699223       1.04761855      14.88070675       0.06160961      -0.01816670      -0.06492584
Sn       7.12622283       5.21360219      14.86823342      -0.02355825       0.03321163      -0.01685881
Sn      18.62947188       5.23080830      14.86785596       0.07668524      -0.07196872      -0.02123479
Sn      30.15028694       5.21605092      14.86071966       0.02068081       0.02859913      -0.01253928
Sn       7.13781537       9.38978561      14.86754368      -0.05693388       0.01924182       0.01468521
Sn      18.64657736       9.38440034      14.86792711      -0.00756231       0.07751325       0.00804842
Sn      30.15972587       9.37626722      14.86851698       0.00828770       0.02537636      -0.05047163
Sn       7.12424105      13.56719681      14.86634632      -0.04091217       0.00402751       0.00655731
Sn      18.64343179      13.57927058      14.85419494      -0.03658772      -0.04943156       0.01589442
Sn      30.15355999      13.57256334      14.87079928      -0.02995499      -0.02650334      -0.04997014
Sn       7.12929273      17.76752206      14.87213137      -0.12105105      -0.09739149       0.00691254
Sn      18.65214947      17.73691557      14.85606089       0.00432867       0.02169773       0.04760454
Sn      30.15383834      17.74710589      14.87005830       0.01173185      -0.02881296      -0.01604311
Sn       7.12873119       1.04148629      19.22335587      -0.01770584      -0.02164558      -0.01825917
Sn      18.63904152       1.05087449      19.23550117       0.07225829      -0.02514051      -0.07256273
Sn      30.14691910       1.05125316      19.22058669       0.02144643      -0.02033443       0.01256385
Sn       7.12938789       5.21579921      19.24275178       0.01694222      -0.04653670      -0.02708341
Sn      18.63665935       5.21950499      19.23315983      -0.01288686      -0.02743925      -0.05743610
Sn      30.14824192       5.21699030      19.22442805       0.09010299       0.01281165       0.01657821
Sn       7.11956054       9.38741078      19.23821404       0.00868250      -0.00081755      -0.05068507
Sn      18.63485458       9.39747209      19.23023985       0.03884948       0.03130246      -0.04350916
Sn      30.14301171       9.39699971      19.21295877       0.10926942      -0.01584081       0.04277884
Sn       7.13097959      13.56082523      19.22717757       0.02430602      -0.00949843       0.02360756
Sn      18.62789729      13.56712097      19.23636340       0.05591034       0.01973280      -0.07417426
Sn      30.14891186      13.55982548      19.23164011       0.07461654       0.03090614      -0.02269936
Sn       7.12949486      17.71564450      19.24724796       0.10472763       0.06972302      -0.06043055
Sn      18.64612563      17.74695548      19.22565849      -0.05705062       0.00194972      -0.02472089
Sn      30.13842798      17.74673351      19.22144202       0.04934788      -0.04818811      -0.04639075
Sn       4.39687280       3.12848629       2.58204737      -0.09877375      -0.02266470       0.01131925
Sn      15.89982494       3.13931819       2.56778318       0.04491983      -0.04610890       0.02736585
Sn      27.44617202       3.15305379       2.59599397      -0.12133938      -0.04948306       0.01115213
Sn       4.40418827       7.30391796       2.59133244      -0.04116381       0.00639154      -0.01124012
Sn      15.90661314       7.28922827       2.59469899      -0.01130569       0.11128835      -0.04255899
Sn      27.43500457       7.30445005       2.56741513      -0.02634464       0.00945812       0.05312650
Sn       4.38557148      11.46064112       2.58911778       0.07382419       0.06746683      -0.03545420
Sn      15.89154181      11.48172089       2.57123004       0.12186919      -0.05003589       0.04712701
Sn      27.40944929      11.48123613       2.57632898       0.06982206      -0.00538372       0.01068595
Sn       4.39981537      15.64026567       2.57209383      -0.07146697       0.04910753       0.05234950
Sn      15.88369848      15.63109825       2.59764890       0.10673104       0.14425659      -0.07309559
Sn      27.44455231      15.65386898       2.57142868      -0.14157238       0.02926956       0.03812499
Sn       4.38844899      19.83576660       2.57452308       0.01814927      -0.02634572       0.01267835
Sn      15.90995124      19.82690330       2.57397885      -0.01699846       0.00030274       0.00444017
Sn      27.41845440      19.82996407       2.56989809      -0.03980489      -0.02610060       0.05688659
Sn       4.39595078       3.12595851       6.94204453       0.02359092      -0.02105829       0.00791716
Sn      15.92141453       3.12899238       6.94996890      -0.09559212      -0.01239110      -0.00198021
Sn      27.40579600       3.12597067       6.94104774       0.07137275      -0.00403321      -0.03007812
Sn       4.41066679       7.28516392       6.93980875      -0.09518548       0.06896199      -0.00518740
Sn      15.92214179       7.29691324       6.93864246      -0.09673291       0.03142453       0.03236058
Sn      27.42703371       7.30660853       6.95642856      -0.02144464       0.00038471      -0.07128372
Sn       4.39591822      11.49213031       6.93717077      -0.06574360      -0.05534282      -0.01332350
Sn      15.90016965      11.47659535       6.92917982       0.03949442      -0.00422829       0.06129069
Sn      27.42855144      11.47499380       6.93405296      -0.08081447       0.05875177       0.03630704
Sn       4.39642007      15.64150456       6.94847587      -0.00652385       0.01096655      -0.05080588
Sn      15.90279153      15.66453269       6.93684348       0.04447263      -0.03631592       0.07834697
Sn      27.43003542      15.65473734       6.94820987      -0.00586155      -0.00554952       0.01853821
Sn       4.39253295      19.81039689       6.95085879      -0.00666826       0.03824154      -0.04830013
Sn      15.90669807      19.83492602       6.94767332       0.05106438      -0.04136384      -0.01759401
Sn      27.41598336      19.81788291       6.94732440       0.01437780       0.04809838      -0.04828929
Sn       4.38840099       3.14003859      11.30009272       0.02557007      -0.00361965      -0.02116477
Sn      15.91780900       3.13490735      11.30475448      -0.03570021      -0.00171886      -0.00376577
Sn      27.41997621       3.13299858      11.31380326       0.05865882      -0.02642830      -0.06997508
Sn       4.39089133       7.31007519      11.30233833      -0.03317998      -0.05244044       0.01306557
Sn      15.90882094       7.32199755      11.31389203      -0.03751468      -0.06795206      -0.07140622
Sn      27.42451036       7.30690798      11.29485603       0.00422307      -0.00878104      -0.02022642
Sn       4.38970377      11.48194656      11.31038087      -0.00829840      -0.01598322      -0.04437161
Sn      15.91506711      11.46775999      11.31164456      -0.06691464       0.07620771      -0.03347343
Sn      27.42282859      11.46898267      11.31523858       0.09249013       0.05583115      -0.03312501
Sn       4.40606627      15.65557919      11.30896267      -0.06985695       0.02336589      -0.04200455
Sn      15.91524940      15.66689944      11.30915542       0.00462788      -0.11151727      -0.03250792
Sn      27.41043944      15.67303980      11.31253130       0.10307839      -0.09092274      -0.08171277
Sn       4.38633824      19.81673461      11.30692287       0.12448572       0.02035940      -0.03135007
Sn      15.90479230      19.83033081      11.30930880       0.03651554      -0.00804910      -0.06679093
Sn      27.41805190      19.81586978      11.30573292       0.02274952       0.01736347      -0.02368928
Sn       4.38609961       3.13213526      15.64954535       0.06946663      -0.02990188       0.00926018
Sn      15.90505308       3.13782382      15.66903794       0.00768596      -0.01772039      -0.03643647
Sn      27.41583274       3.11899166      15.66313625      -0.00564369       0.05710579      -0.00578689
Sn       4.39704381       7.30881519      15.65785701       0.02323931      -0.00775490       0.02990853
Sn      15.91055315       7.31978700      15.66503006      -0.02438959      -0.04947783      -0.04230998
Sn      27.40738484       7.30679544      15.68341818       0.09177732      -0.02052561      -0.08257855
Sn       4.37855958      11.47914983      15.66071526       0.00191185      -0.03917099       0.01945968
Sn      15.90853373      11.48079510      15.67437833      -0.00179834       0.00088940      -0.06272914
Sn      27.42456416      11.49162518      15.66180206       0.04975553      -0.04711764      -0.04809673
Sn       4.38793212      15.64624989      15.64480774      -0.00560971       0.02174585       0.09765023
Sn      15.91033272      15.67348172      15.66756097      -0.06903035      -0.07806003      -0.02018679
Sn      27.43058380      15.64881141      15.66053528      -0.01656033       0.01557205       0.03778405
Sn       4.40127990      19.84711780      15.67785809      -0.01011261      -0.09778690       0.00167289
Sn      15.91562735      19.82738237      15.66507580      -0.03927977       0.02696812       0.01229418
Sn      27.41618125      19.81254919      15.65171063       0.02981461       0.01203271       0.03422251
Sn       4.39193148       3.12775438      20.00938808       0.05384390      -0.00370552       0.03369092
Sn      15.90720167       3.12749000      20.01235400      -0.00291127      -0.00662198       0.00184198
Sn      27.42001453       3.12746477      20.01791612      -0.02799215       0.01678081      -0.01369644
Sn       4.40070019       7.28573443      20.00422450      -0.05916464       0.06301241       0.06500103
Sn      15.90760776       7.30572471      20.02812464      -0.03000113       0.01732558      -0.01285093
Sn      27.41832659       7.29558420      20.02400933       0.02557370       0.00687747       0.00115001
Sn       4.38701770      11.49436329      20.02084022      -0.03700750      -0.06501722       0.02766667
Sn      15.90704305      11.50360676      20.02213489       0.02437632      -0.08522603      -0.01894149
Sn      27.42927789      11.48531568      20.03139651      -0.03177853      -0.00817279      -0.00612770
Sn       4.39432836      15.65488013      20.02508584      -0.01789908      -0.02509201       0.00882149
Sn      15.90181496      15.65619691      20.04436895      -0.01984364       0.04389369      -0.10207127
Sn      27.43582314      15.65598090      20.03264079      -0.05758114      -0.04986271      -0.06627226
Sn       4.38274172      19.82442574      20.03356099       0.06710888       0.01814196      -0.01859828
Sn      15.92244658      19.81932220      20.01924661      -0.06664064       0.03737094      -0.01486755
Sn      27.44553008      19.82799347      20.04231611      -0.08037393      -0.01529429      -0.04990945
Sn      10.15157277       3.13313610       3.96017541      -0.05886450      -0.00283634       0.01294049
Sn      21.67507117       3.14425208       3.95288030      -0.04844578      -0.06496262       0.05142179
Sn      33.17826253       3.13982509       3.96193483       0.05581707      -0.02042574       0.01971567
Sn      10.14457034       7.31485886       3.97426485      -0.05475205      -0.03864452      -0.07276930
Sn      21.66114919       7.30688711       3.95114557       0.03206164      -0.00758745       0.02573845
Sn      33.17283222       7.30600509       3.96354439       0.04483851      -0.04571412       0.04125870
Sn      10.13983543      11.47169284       3.95257987       0.00954774       0.05607219       0.02868135
Sn      21.67019621      11.45917619       3.95311455      -0.01343315       0.10718564       0.02706053
Sn      33.16315762      11.48304279       3.94520298       0.07831298      -0.02580650       0.12338123
Sn      10.14982149      15.66933696       3.97996466       0.00110117      -0.06000725      -0.09607399
Sn      21.64758654      15.65592582       3.95334061       0.08542979      -0.04978503       0.05059557
Sn      33.16985567      15.65180702       3.97551323       0.03487807      -0.03436963      -0.02072013
Sn      10.15550078      19.81987945       3.97028066      -0.04904621       0.00026172      -0.04865643
Sn      21.64320853      19.81950140       3.95499140       0.09530226       0.05037928       0.03366733
Sn      33.18257024      19.82500258       3.96181561       0.02120212       0.04211716       0.04674251
Sn      10.14775700       3.13089837       8.32973551       0.02376030      -0.01225800      -0.06435217
Sn      21.66713892       3.12783078       8.32835168      -0.00693409      -0.03746648      -0.03260419
Sn      33.19004827       3.12511404       8.32374017      -0.09867001      -0.01274276      -0.04019692
Sn      10.16112326       7.29373583       8.34238122      -0.08102136       0.03680262      -0.08844612
Sn      21.65225406       7.30130979       8.31483230       0.06475724      -0.00501116       0.02374589
Sn      33.20366630       7.29972994       8.31932579      -0.05303036       0.01184272      -0.00759993
Sn      10.14579671      11.47980861       8.32104978       0.04621574       0.00319477       0.05049050
Sn      21.66431675      11.44356048       8.32490580       0.00838805       0.16184487      -0.00416306
Sn      33.18196510      11.48923827       8.33742481      -0.03968783      -0.05374607      -0.07522815
Sn      10.14762711      15.66110401       8.31331851       0.05083354      -0.05070855       0.05155191
Sn      21.67331904      15.64721696       8.31248722      -0.00075796      -0.03182260       0.03948859
Sn      33.17993115      15.66694645       8.32614425       0.01228087      -0.08131162      -0.00283040
Sn      10.16446908      19.81954353       8.33481271      -0.12907585       0.06016166      -0.04020200
Sn      21.65912401      19.82928415       8.32650103      -0.01857498      -0.01166654      -0.05697641
Sn      33.18840195      19.82953827       8.31694235       0.01947169       0.01464178       0.00828115
Sn      10.15830726       3.14799087      12.67960004      -0.03392645      -0.06225345       0.06601065
Sn      21.64729329       3.13566750      12.68212627       0.10850303      -0.00825422       0.03421828
Sn      33.18047601       3.13623608      12.68087415       0.01497637      -0.02292507       0.01061752
Sn      10.14681567       7.30376225      12.70013562      -0.02479988       0.03077415      -0.01584120
Sn      21.66594631       7.29240670      12.67347929       0.03614157       0.05762265       0.05279674
Sn      33.18317933       7.29346916      12.66981504      -0.02455554       0.04857827       0.02947201
Sn      10.15585955      11.48569756      12.68175671       0.02916082      -0.02698128      -0.01634928
Sn      21.66858221      11.48073380      12.69146227       0.07391543       0.04662059      -0.07000862
Sn      33.18783453      11.45279469      12.68303309      -0.04639167       0.05714277       0.01365792
Sn      10.15468324      15.64883715      12.68580010      -0.03405761       0.00299491      -0.03937432
Sn      21.67315261      15.65375097      12.70051727       0.04162475      -0.03072725      -0.04919563
Sn      33.19305690      15.65175608      12.68345762      -0.05102447       0.01110265      -0.02179823
Sn      10.12100095      19.82376584      12.67190539       0.18231703       0.01475041       0.07902213
Sn      21.66785791      19.82855957      12.69239664       0.00481392      -0.00493716      -0.05312944
Sn      33.19575374      19.82676817      12.70824224      -0.04989677      -0.01264909      -0.09283391
Sn      10.15182871       3.11757214      17.04092124      -0.01200569       0.04247226      -0.03596189
Sn      21.66191815       3.13659557      17.03706946      -0.00946300      -0.01489683       0.02131559
Sn      33.17880727       3.12906390      17.04206075       0.03794830       0.05278063       0.07362810
Sn      10.15761835       7.31117665      17.05820763      -0.04046550      -0.04676648      -0.03971199
Sn      21.66233536       7.31678872      17.03290199       0.01343811      -0.04108007       0.02534250
Sn      33.16790319       7.29262542      17.04663408       0.07264439       0.02187334       0.05520411
Sn      10.16152797      11.47283116      17.04177502      -0.01936778       0.03554740       0.04000009
Sn      21.66348543      11.48458086      17.04176571       0.02089342      -0.02289558       0.03245185
Sn      33.17645286      11.46539863      17.04082475       0.06376532       0.01491804       0.01645907
Sn      10.16127881      15.65385098      17.03914341      -0.07834005      -0.01002867       0.06772834
Sn      21.67800705      15.64708959      17.06074151      -0.08707572       0.02770087      -0.02899987
Sn      33.19582310      15.65350184      17.03155646      -0.08870356      -0.03153161       0.02482384
Sn      10.17239920      19.83090362      17.04330309      -0.11661356      -0.03319389       0.01332789
Sn      21.67520689      19.83405389      17.05965134      -0.04208939      -0.01759169      -0.00845228
Sn      33.17516356      19.83021559      17.03468326       0.06052673       0.00430583       0.05037082
Sn      10.15616754       3.13044485      21.41045593       0.00683298       0.00637729       0.02421191
Sn      21.66418212       3.12816441      21.39896353       0.09370254       0.01069397       0.03895848
Sn      33.18969134       3.14557134      21.40207915      -0.03013616       0.00196913      -0.01146048
Sn      10.15503960       7.30908528      21.40772682      -0.05382102      -0.01464853      -0.00442402
Sn      21.65037966       7.29174747      21.39983602       0.10848943       0.07856141       0.01897029
Sn      33.16039699       7.31884375      21.41132287       0.14079874      -0.05011472      -0.03944697
Sn      10.14920458      11.45695022      21.38940713       0.03580097       0.10086003       0.09011412
Sn      21.66562220      11.49855748      21.40065940       0.03437706      -0.03842435       0.02406545
Sn      33.19042501      11.47405356      21.40819823      -0.04587926       0.00917858      -0.03403642
Sn      10.16165103      15.64948220      21.40074479      -0.01671730      -0.01200436       0.00977734
Sn      21.67982632      15.65339730      21.41855789      -0.06845494      -0.00513785      -0.02021504
Sn      33.17493454      15.66700846      21.41038211       0.03997069      -0.07276959       0.01693301
Sn      10.15385207      19.82834715      21.40259109       0.03988713      -0.02969314       0.05005097
Sn      21.66562879      19.82260496      21.41724130       0.00382404       0.03910164      -0.06856153
Sn      33.17975646      19.81206579      21.39085160       0.07917742       0.07853827       0.05688053
Sn       1.34936078       1.04980944       0.38759999       0.08035269      -0.02179073       0.02716914
Sn      12.88577024       1.04499548       0.39846795      -0.01930870      -0.01496788      -0.03275835
Sn      24.40329485       1.04521277       0.37201774       0.02453461      -0.00201450       0.08964104
Sn       1.36339171       5.22196990       0.41551786       0.00928100      -0.02260917      -0.04359954
Sn      12.89963396       5.20408737       0.39561778      -0.07890597       0.05372751      -0.04813064
Sn      24.38324965       5.23291772       0.40924359       0.00161904      -0.06499092      -0.02439187
Sn       1.37013384       9.39346896       0.41292134       0.01865614      -0.00564342      -0.01993985
Sn      12.89488263       9.40338846       0.40368183      -0.03584110      -0.05364596      -0.03514815
Sn      24.39541852       9.39947926       0.40727545      -0.03036614      -0.04892393      -0.07035091
Sn       1.36472159      13.56238466       0.41044817       0.00918015       0.04013187      -0.06175515
Sn      12.89941054      13.55840319       0.39648127      -0.14260815       0.05147561      -0.04700054
Sn      24.40242013      13.57076314       0.39389137      -0.04512418      -0.01931105       0.00242206
Sn       1.38546317      17.74420724       0.40442887      -0.03594655      -0.01976416       0.01374514
Sn      12.90035822      17.73549567       0.39823071      -0.09413565       0.02730762      -0.03591339
Sn      24.38637758      17.73826279       0.38422576       0.06681880       0.01965206       0.06222533
Sn       1.37410646       1.04782970       4.75744822      -0.01537119      -0.02856991       0.01050901
Sn      12.88176515       1.05124439       4.74886095       0.06137510      -0.02256399       0.06893465
Sn      24.40095248       1.05062483       4.74239617      -0.02213678      -0.05734414      -0.01144356
Sn       1.37347734       5.20097825       4.75904297      -0.02956243       0.07770659       0.06616787
Sn      12.87113547       5.23203134       4.74864770       0.00240387      -0.04456438       0.03133769
Sn      24.38240890       5.21905239       4.75608188       0.07309685       0.00961318       0.07468502
Sn       1.35158191       9.39706616       4.74030392       0.03851722      -0.05483947       0.10900746
Sn      12.87240697       9.38605583       4.76824114       0.02788164       0.03658235       0.01441919
Sn      24.41186549       9.40283583       4.75868617      -0.02853841      -0.04161091       0.03413785
Sn       1.34235488      13.56980568       4.77492465       0.03624745      -0.04069050      -0.04578452
Sn      12.89510729      13.57052664       4.74832388      -0.09720867       0.00835071       0.06176435
Sn      24.39365773      13.58523529       4.74605162      -0.01524769      -0.08200474       0.03282206
Sn       1.35514955      17.74941181       4.75590732       0.05482678      -0.05079716       0.01175107
Sn      12.87095183      17.75526600       4.76482947       0.03706421      -0.05173333       0.03132767
Sn      24.39509279      17.72852854       4.78069298       0.05612360       0.03412832      -0.06769156
Sn       1.36638344       1.05760301       9.13025913       0.06815346      -0.08344190      -0.04917216
Sn      12.87756037       1.03850032       9.13578594       0.02149468       0.00239376      -0.07727933
Sn      24.41353598       1.02486057       9.12682060      -0.06655893       0.05977069      -0.03894783
Sn       1.36541581       5.20738564       9.12394025      -0.00495704       0.08076994      -0.07357853
Sn      12.86927341       5.21305432       9.11333806       0.06637842      -0.02734348       0.02652735
Sn      24.39391289       5.21700409       9.11116713       0.01214293       0.02955471       0.00247104
Sn       1.38235975       9.39674084       9.13926842      -0.08871587      -0.05948035      -0.10378600
Sn      12.88116858       9.38632011       9.13890695       0.04414368       0.03977092      -0.04492309
Sn      24.39313020       9.39002509       9.12852327       0.00274440      -0.00101072      -0.04421847
Sn       1.35425070      13.57301010       9.12715626       0.03053549      -0.04251671      -0.01886359
Sn      12.89546264      13.57479760       9.13432258      -0.14221486      -0.04328377      -0.04398529
Sn      24.39780658      13.55727045       9.14242265       0.03210922       0.01692389      -0.06522531
Sn       1.35136101      17.72572116       9.12697407       0.08309935       0.04382653      -0.03763600
Sn      12.89901924      17.74188180       9.13131583      -0.02561881      -0.02777460      -0.02964611
Sn      24.37895278      17.73499084       9.10258331       0.06092479       0.00229249       0.03798513
Sn       1.37443207       1.02815742      13.46964848       0.04218189       0.03938236       0.08778993
Sn      12.88790963       1.05424797      13.48083699      -0.06687167      -0.04061330      -0.01315659
Sn      24.40461253       1.04900761      13.48027240      -0.02420121       0.01011829      -0.04526303
Sn       1.35568091       5.22336778      13.48855763       0.06509440      -0.05443687       0.01236368
Sn      12.89170963       5.22083953      13.47074167      -0.03647665      -0.00972690       0.02895558
Sn      24.40581420       5.21770506      13.47759930       0.01531645       0.02176086       0.00497440
Sn       1.36368160       9.38490544      13.49131511       0.00386844       0.01074358      -0.00930478
Sn      12.86858823       9.38187315      13.47913894       0.03349878       0.05905083      -0.02491857
Sn      24.41504831       9.40235082      13.46601826      -0.04482676      -0.04267368       0.02097195
Sn       1.38014143      13.57939135      13.47068659      -0.08973498      -0.07383076       0.05860007
Sn      12.85755480      13.56517493      13.49365092       0.11294212      -0.00192304      -0.04759048
Sn      24.41482342      13.55718888      13.49994646      -0.03117701       0.07558368      -0.05010368
Sn       1.34434864      17.73630578      13.47825457       0.12520199       0.04603644       0.04517319
Sn      12.89429275      17.75296932      13.49196891      -0.09970446      -0.00695214      -0.06317292
Sn      24.38540530      17.74861248      13.48751709      -0.02876811      -0.03011391      -0.00829770
Sn       1.34991562       1.02295959      17.85391045       0.06063884       0.09013058      -0.00157326
Sn      12.88096839       1.03077791      17.84144883       0.00286418       0.05632386       0.01051112
Sn      24.40255121       1.04280122      17.82801069       0.01370155       0.01712327       0.06709538
Sn       1.38548353       5.22776105      17.84017678      -0.10412544      -0.04726862      -0.04124348
Sn      12.87981844       5.22131374      17.83223434      -0.01061399       0.00961244       0.03315216
Sn      24.40213757       5.20441155      17.84282521      -0.02125097       0.08079768       0.00891076
Sn       1.35494225       9.38062717      17.85998778       0.00093857       0.06717331      -0.05378631
Sn      12.88336164       9.39388208      17.82341675       0.07189099      -0.02272868       0.08755213
Sn      24.39294078       9.39642013      17.84547192       0.09770649      -0.03575551       0.00715914
Sn       1.34508766      13.56796853      17.84719614       0.06812554      -0.02564491       0.02145888
Sn      12.89560700      13.55934484      17.82110987      -0.03512940       0.04262795       0.02450177
Sn      24.38894309      13.55492650      17.85089764       0.07145377       0.01562615      -0.00927964
Sn       1.33946060      17.73550273      17.85778851       0.12369154      -0.00863948      -0.02555567
Sn      12.88284151      17.74894946      17.82711257      -0.04119157      -0.02873780       0.08349950
Sn      24.38289091      17.75435872      17.84454271       0.09867855      -0.07084031       0.01450993
600
Lattice="34.548424260000004 0.0 0.0 0.0 20.870445700000005 0.0 0.0 0.0 21.8055194" Properties=species:S:1:pos:R:3:forces:R:3 mlfcs_configuration_id=5 mlfcs_sampling_method=gaussian pbc="T T T"
Se       4.11780825       1.03246314       0.10760986      -0.03205490       0.06817353       0.00573806
Se      15.62145755       1.05551337       0.13388035       0.05228773      -0.05362372      -0.14737624
Se      27.15389775       1.03729520       0.08126546      -0.00593760       0.03390837       0.17361299
Se       4.09993086       5.23328243       0.09631013       0.12171685      -0.11405421       0.06873847
Se      15.62920857       5.22428707       0.12142494      -0.01351823      -0.00838094      -0.07169685
Se      27.14706247       5.21368714       0.10731825      -0.04550730      -0.00172251       0.01363814
Se       4.11049913       9.38608476       0.11072084       0.06795950       0.04259054      -0.02982171
Se      15.63476984       9.41313900       0.11099053       0.00958909      -0.08166852      -0.01723380
Se      27.16056980       9.38111010       0.11185362      -0.03647425       0.04476919      -0.01662570
Se       4.10954569      13.56986662       0.11348719       0.04610367      -0.01369982      -0.01443060
Se      15.63341561      13.58998535       0.12088184       0.03885369      -0.09451300      -0.05443218
Se      27.16083080      13.57355495       0.12423565      -0.04964431      -0.04807099      -0.05415173
Se       4.10240581      17.75370406       0.09668960       0.02091490      -0.01209906       0.01591960
Se      15.62727353      17.74561515       0.11893425       0.04941075      -0.01768591      -0.05848133
Se      27.13752258      17.73487578       0.10757736       0.02036246       0.03200120      -0.01469497
Se       4.11491184       1.05218499       4.50206520       0.00515185      -0.05407384      -0.13197193
Se      15.63711013       1.03629270       4.45474084       0.03309034       0.01008554       0.02220935
Se      27.14580580       1.03424217       4.47238142       0.04696680       0.05096946      -0.07102811
Se       4.12129572       5.21310213       4.48755547       0.01440977       0.01874509      -0.07728776
Se      15.62556245       5.21653950       4.47409755       0.03196799       0.06546894       0.00268340
Se      27.15797889       5.23050957       4.47199089      -0.07126090      -0.07067050      -0.03603730
Se       4.12728463       9.38517187       4.47688674      -0.01425581       0.03946037      -0.04611045
Se      15.64196421       9.40695182       4.45102156      -0.01058749      -0.05251042       0.05400575
Se      27.13998651       9.40005436       4.44119228       0.03193537      -0.04065184       0.13370565
Se       4.12169556      13.57651013       4.46194217      -0.04044528      -0.03796762      -0.00354214
Se      15.62861502      13.55517072       4.46249045      -0.05305060       0.10755987       0.03418247
Se      27.14413266      13.55908368       4.46032914       0.01163321       0.03448314       0.01524366
Se       4.11406546      17.73717019       4.48644724       0.05049338       0.04884418      -0.07657183
Se      15.62897507      17.74344273       4.46193709       0.02077114      -0.00596945       0.04616828
Se      27.14316239      17.72295752       4.45199226       0.03975613       0.09115970       0.06811512
Se       4.10470552       1.04548164       8.83957154       0.06281053       0.00694744      -0.04247577
Se      15.61505028       1.03815390       8.81514090       0.14812162       0.03274403      -0.00764482
Se      27.14641557       1.05440236       8.82434098       0.01478312      -0.06846840       0.03694243
Se       4.11630033       5.23228609       8.83338881      -0.01512426      -0.06526891       0.01270009
Se      15.62531600       5.21932296       8.82053431       0.05145059      -0.01060966      -0.00721190
Se      27.15326316       5.22288721       8.81513821      -0.01491466      -0.00501041       0.03905452
Se       4.11852700       9.39064722       8.83425658       0.01855779       0.01800048      -0.03594714
Se      15.64123039       9.39659744       8.82577787      -0.07774977      -0.03952731      -0.00100876
Se      27.15839164       9.38309232       8.81560458      -0.06954352       0.04542726       0.05282764
Se       4.08482264      13.56521068       8.82059434       0.15864767      -0.01381801       0.01818248
Se      15.63689447      13.54619981       8.82233802       0.02139754       0.10111375       0.00022660
Se      27.15376104      13.55561373       8.83290237      -0.00744456       0.07136952      -0.01417034
Se       4.11120528      17.73967315       8.83476138      -0.00375189       0.00895853      -0.04843085
Se      15.64244489      17.74092615       8.82066970      -0.01834035      -0.01459108       0.01465596
Se      27.14447795      17.74637078       8.81859727      -0.01067907      -0.02114674       0.04207268
Se       4.11499484       1.03978583      13.18888007       0.01545708       0.06662781       0.01294680
Se      15.62282410       1.02512523      13.19512111       0.06999272       0.07506439      -0.01264945
Se      27.15869966       1.02572292      13.19360295      -0.03362183       0.06120444      -0.00668272
Se       4.12760733       5.22369292      13.18574698      -0.02767458      -0.03530779       0.00561940
Se      15.62348196       5.21854359      13.19239153       0.06049308      -0.01956958       0.03038989
Se      27.15001642       5.21593246      13.17908717      -0.01832202      -0.00712072       0.04169539
Se       4.12100239       9.39653149      13.19192190      -0.05416157      -0.00203104      -0.02080864
Se      15.63402686       9.40861544      13.18366990      -0.10029248      -0.08203758       0.01694619
Se      27.16187269       9.38448270      13.20100319       0.00246825       0.02097192      -0.02657030
Se       4.12910918      13.56298158      13.20652331      -0.11140059       0.00396090      -0.06832707
Se      15.63760728      13.55713936      13.18617212      -0.03522143       0.05300634       0.05246383
Se      27.16038597      13.57514274      13.17933328      -0.04653219      -0.05164788       0.01044982
Se       4.11538293      17.74203646      13.18483764      -0.03105108      -0.00229552       0.02938102
Se      15.65649492      17.74233787      13.18929556      -0.09294684      -0.01946204      -0.01839450
Se      27.16096685      17.73634909      13.19998796      -0.05196576       0.02648960      -0.03633760
Se       4.10009818       1.03910813      17.56150827       0.05510573       0.02432430      -0.06102735
Se      15.64861890       1.03591171      17.54211935      -0.12186466       0.06126061       0.06430892
Se      27.15473281       1.03741433      17.54833178      -0.01748488       0.04333353      -0.01305611
Se       4.12553955       5.21229279      17.53136331      -0.02443275       0.02027031       0.08825707
Se      15.61990608       5.21783336      17.53238333       0.08220479       0.02748310       0.06379996
Se      27.14608674       5.20381284      17.56741695       0.05310082       0.07619890      -0.09885086
Se       4.13842693       9.38124098      17.55358515      -0.10200640       0.05430998       0.00236310
Se      15.62331289       9.38872979      17.56905226       0.02741571       0.00118897      -0.05844333
Se      27.14439146       9.38896257      17.54159227       0.03348455      -0.00470790       0.04501656
Se       4.12823740      13.53327942      17.54658959      -0.01456282       0.14988402       0.05586771
Se      15.63245806      13.55930132      17.55965302      -0.06838235       0.03859827      -0.03866540
Se      27.16107862      13.55179169      17.57195243      -0.07202768       0.06539562      -0.05462157
Se       4.10254291      17.75288754      17.55251584       0.01665259      -0.06209293      -0.00368385
Se      15.62787991      17.73590756      17.55068244       0.08827985       0.03731191       0.03025391
Se      27.15114252      17.73079969      17.54867816      -0.04817768       0.01230115       0.02623608
Se       7.39195494       3.11853874       4.24781587      -0.01428128       0.03964828       0.05888190
Se      18.90430334       3.12648769       4.26031373       0.04222269      -0.00871535      -0.04677451
Se      30.43315161       3.15043269       4.23388445      -0.09369773      -0.07639595       0.09066609
Se       7.40435508       7.30484258       4.26414569       0.05269351      -0.00503978      -0.03312533
Se      18.92296774       7.30312846       4.25771550      -0.05179966       0.00654447      -0.04997602
Se      30.42450382       7.31091518       4.23720022       0.06953947      -0.00835189       0.09467860
Se       7.40742993      11.47863578       4.25111836       0.01108556      -0.02848100      -0.01345774
Se      18.91347776      11.47727556       4.26896202       0.00370515      -0.00755735      -0.04279774
Se      30.46427945      11.49106623       4.25033573      -0.08374638      -0.05427141      -0.01236592
Se       7.40595949      15.65968995       4.24673738      -0.05744752      -0.04465346       0.05090508
Se      18.90319510      15.65232385       4.26406606       0.01044412       0.01927647      -0.03623691
Se      30.41582643      15.64574768       4.26171550       0.13889501       0.04384764      -0.01086631
Se       7.40007891      19.84120854       4.24187531      -0.06810766      -0.10795426       0.02181192
Se      18.93932474      19.81166587       4.23569735      -0.10213122       0.05507700       0.06384588
Se      30.43135538      19.81570121       4.25560143       0.00921021       0.05608231       0.02970625
Se       7.39892440       3.12873150       8.60866875      -0.01809443       0.00699884       0.05165687
Se      18.92012965       3.12751587       8.62812951      -0.02163477      -0.03631507      -0.02817567
Se      30.43014079       3.12104276       8.60021576      -0.02531360       0.02990301       0.05880775
Se       7.39794058       7.29208633       8.60359324      -0.00403220       0.05076595       0.07198380
Se      18.92107766       7.28700168       8.63121480      -0.02637857       0.06835369      -0.01547233
Se      30.43354167       7.30433995       8.60674520      -0.02313361       0.03921845       0.01048243
Se       7.40730539      11.47883847       8.61023190      -0.02977759      -0.01074547       0.01947757
Se      18.91780134      11.46203966       8.60073959      -0.05937042       0.05169517       0.06435975
Se      30.42074265      11.48236279       8.61706028       0.09466326      -0.03260290       0.02970588
Se       7.41015146      15.64375676       8.62283954      -0.08763049       0.01147268      -0.05475586
Se      18.91466438      15.64352621       8.62094594      -0.02591622       0.05256083      -0.02836851
Se      30.43128439      15.64666547       8.61751285       0.03494337       0.05941507      -0.00504208
Se       7.39836637      19.82550892       8.61296693      -0.01427935      -0.02200763      -0.01436684
Se      18.90275360      19.82779345       8.60906572       0.01101150      -0.00717708       0.02894404
Se      30.42174122      19.82463880       8.62443313       0.02577041       0.06065020      -0.06319110
Se       7.40151780       3.12537782      12.97248328       0.00403214       0.01063177       0.00794574
Se      18.92216122       3.10672188      12.98617039      -0.08892321       0.07406121      -0.00953335
Se      30.41320435       3.11653516      12.97305409       0.08264653       0.03858833       0.01682018
Se       7.42136291       7.32155257      12.98526162      -0.06530964      -0.08822059      -0.00278940
Se      18.91936851       7.28615561      12.97976433      -0.01242595       0.03590168      -0.01044704
Se      30.42645229       7.29661169      12.97974477       0.01251288       0.02631328      -0.02988547
Se       7.39495057      11.48756051      12.95883720       0.04063243      -0.02062639       0.07362088
Se      18.91655320      11.47007655      12.97410039      -0.02491444      -0.00069070       0.01295105
Se      30.43499077      11.46769444      12.97983906       0.06962485       0.06715783       0.01390976
Se       7.39753829      15.64635079      12.97349102       0.01814205       0.01734955      -0.01087417
Se      18.91425757      15.64527829      12.97826769       0.01659930       0.01844502      -0.01299423
Se      30.42916274      15.64684383      12.99409517       0.05782345       0.05151764      -0.08034012
Se       7.40381407      19.82321868      12.97965535      -0.06795516       0.02112157      -0.05397000
Se      18.90553489      19.82267808      12.97499597       0.07840913      -0.01827375       0.05371927
Se      30.41947657      19.83091934      12.97314062       0.06801720      -0.00358236       0.02976786
Se       7.39610700       3.12500204      17.36889153       0.07805842      -0.02320357      -0.11386079
Se      18.90917694       3.11000247      17.32330130       0.06270818       0.10309805       0.04963506
Se      30.43953754       3.14405377      17.33248265      -0.03045427      -0.03642867       0.00476230
Se       7.41245117       7.31219428      17.33740582      -0.03124658      -0.06076936      -0.01093008
Se      18.91319863       7.30658708      17.34807518      -0.01334022      -0.04782763      -0.05998009
Se      30.43591746       7.29801030      17.33755855       0.00579143       0.01339434      -0.02430206
Se       7.41947430      11.48137966      17.34799388      -0.08621444       0.01226520      -0.02777763
Se      18.92120194      11.48160110      17.34038761      -0.00603716      -0.01715571      -0.03838679
Se      30.44091842      11.48605394      17.34193956      -0.02282867      -0.07933707      -0.00046928
Se       7.39272404      15.65681225      17.33863054       0.04253951      -0.03489956       0.04204516
Se      18.91272053      15.67974442      17.32391011      -0.03040181      -0.13202721       0.04320375
Se      30.44152964      15.64432995      17.34061258      -0.08570881       0.03088218      -0.01979379
Se       7.42534754      19.81742211      17.33206190      -0.08736463       0.01866733       0.07793265
Se      18.91562795      19.81857363      17.34814119       0.01555949      -0.00504501      -0.05842417
Se      30.42659922      19.83358590      17.32600873      -0.01678605      -0.02117364      -0.00621207
Se       7.38159335       3.12839939      21.68471942       0.10484649      -0.01372570       0.04572977
Se      18.93098578       3.11539120      21.69002764      -0.16095338       0.10388264       0.03158320
Se      30.43608071       3.12482560      21.68522062      -0.04923526       0.02523964       0.03931557
Se       7.42006131       7.29476204      21.69844193      -0.12054108       0.07146824       0.04473092
Se      18.91371116       7.31188147      21.70502803       0.00642835      -0.05420383      -0.02300922
Se      30.42367650       7.30152011      21.69813528       0.01242886       0.02398641       0.01649356
Se       7.40715126      11.46718430      21.72058561      -0.06868532       0.04228815      -0.06317700
Se      18.90821126      11.47878002      21.68880461       0.05879209       0.00764634       0.06246800
Se      30.41896292      11.47012323      21.69069927       0.06168094       0.03394545       0.02710167
Se       7.39551910      15.64316701      21.70736003      -0.00534473       0.04323790      -0.03403741
Se      18.90797325      15.64401850      21.69647481       0.00738640       0.04729362       0.00128871
Se      30.44187290      15.65510542      21.69940761      -0.01681157      -0.00283711       0.00002578
Se       7.38533122      19.81561871      21.68762040       0.06606385       0.05880674       0.06711557
Se      18.92887160      19.83235143      21.69178830      -0.05646312      -0.02829332       0.01730755
Se      30.42630079      19.81879290      21.69154589      -0.00024777       0.02204912       0.04196128
Se       1.64619397       3.12781388       2.30796566      -0.05287413       0.04323887      -0.07362868
Se      13.17023598       3.14378404       2.29386755      -0.04283829      -0.03347766      -0.02777881
Se      24.66964721       3.13666715       2.28366566       0.03037805      -0.01653421       0.05016672
Se       1.65789372       7.30882117       2.28977759      -0.13418039      -0.03378583      -0.00238920
Se      13.15900311       7.32218104       2.27281648       0.00170478      -0.07963665       0.06403914
Se      24.69225668       7.30291684       2.27309249      -0.07932153       0.02516120       0.03901780
Se       1.63406886      11.46235945       2.29369055       0.03386540       0.05795320      -0.02905119
Se      13.14734945      11.48055420       2.29849615       0.03928459       0.00907741      -0.02852442
Se      24.66715363      11.47618648       2.27412032       0.04627222       0.00986166       0.04235843
Se       1.63770739      15.67869690       2.29493332       0.02740084      -0.09096380      -0.05891521
Se      13.15508508      15.64683978       2.28672765       0.04807078       0.08713674       0.03247635
Se      24.67517431      15.64876596       2.29245458      -0.02354363       0.02711357      -0.03215243
Se       1.63205648      19.81746192       2.29085594       0.02672928       0.08167813       0.00056234
Se      13.14604596      19.83433597       2.28701118       0.07314193      -0.05244405      -0.00824645
Se      24.65559471      19.82814079       2.27030252       0.09454228      -0.00577094       0.11285782
Se       1.64852458       3.12820210       6.66676871      -0.06484149       0.04768570      -0.06685703
Se      13.16844551       3.12008231       6.62805046      -0.06054680       0.09631648       0.04625401
Se      24.66632279       3.11847665       6.66651524       0.01631312       0.02130899      -0.07625465
Se       1.64148781       7.31411257       6.64540755      -0.04752304      -0.03897734       0.00382766
Se      13.15593570       7.30445211       6.65932326       0.05413669       0.03365827       0.00306401
Se      24.67699005       7.29420504       6.66448300      -0.03834099       0.05823758      -0.08270653
Se       1.63866280      11.47431232       6.61996281       0.01829516       0.06303805       0.09612239
Se      13.16407638      11.47987765       6.64925712       0.03676033      -0.01378731      -0.03788365
Se      24.66984555      11.47311534       6.64456206      -0.01069008       0.03047789       0.04923455
Se       1.64622257      15.65934784       6.64594755      -0.05135792      -0.03769896      -0.00939374
Se      13.16722175      15.65216692       6.64321560      -0.08234739       0.03028772      -0.00432151
Se      24.67585796      15.63936279       6.65058505      -0.08849588       0.06021081       0.02244543
Se       1.62616914      19.81676853       6.62807095       0.06736610       0.07345295       0.13985062
Se      13.15598121      19.84314214       6.64708710       0.00260241      -0.13897633       0.02961832
Se      24.68030965      19.85056894       6.65229842      -0.03497115      -0.12754795      -0.06113461
Se       1.63393884       3.12441355      11.00936833       0.01679021       0.00182639       0.00139257
Se      13.15140343       3.12510837      11.01921428       0.04961706       0.04805227      -0.03946169
Se      24.68413536       3.11422031      11.00118005      -0.04117778       0.06913507       0.03348579
Se       1.63695092       7.31076927      11.02079250       0.00890746      -0.03523723      -0.03513258
Se      13.18475206       7.30012165      11.00520446      -0.17535010       0.03714147       0.00092344
Se      24.67975950       7.29795621      11.00795212       0.02669375       0.06766287      -0.00054851
Se       1.63744058      11.45265098      11.01059408       0.05889967       0.13992253       0.01861377
Se      13.15590877      11.49157983      11.00941665      -0.00334720      -0.06061703      -0.02189928
Se      24.66132632      11.47628653      10.98845092       0.09589317       0.02960088       0.07486226
Se       1.62948178      15.65931172      11.00688834       0.04993525      -0.04461536       0.06407092
Se      13.16695746      15.63328774      11.00693713      -0.11767455       0.10131759       0.00051400
Se      24.66911867      15.66251514      11.01608937      -0.02182037      -0.00981173      -0.02048645
Se       1.64801348      19.84245990      11.00568087      -0.04842057      -0.07636963       0.03203097
Se      13.17108319      19.81660374      10.99855297      -0.04704211       0.01193490      -0.00723291
Se      24.68140127      19.81199839      11.01508940       0.02916345       0.03190738      -0.00514883
Se       1.64260409       3.14140777      15.36987118      -0.02983462      -0.04817253       0.01258582
Se      13.15829287       3.13578189      15.36383913      -0.04948827      -0.02445480       0.03194677
Se      24.66681174       3.13543353      15.37017275       0.05218355      -0.02080471      -0.03002623
Se       1.63751782       7.30395054      15.38641122       0.03630009       0.03365294      -0.06105938
Se      13.15330220       7.30005818      15.35339118       0.00446496       0.01111621       0.06751032
Se      24.67345027       7.31134721      15.37882760       0.05162290      -0.05292230      -0.03852097
Se       1.64267314      11.48842585      15.37777793      -0.11841603      -0.06252014      -0.07149005
Se      13.16886188      11.48871055      15.38616541      -0.09336177      -0.04150251      -0.04497564
Se      24.67217687      11.46559694      15.37710281       0.05717785       0.05782526      -0.02330937
Se       1.64939649      15.66865661      15.38327853      -0.03745071      -0.09062829      -0.09442881
Se      13.17718710      15.65915520      15.37275373      -0.06734526      -0.02110049      -0.04507961
Se      24.66002397      15.65603762      15.36494059       0.05960867      -0.06575481       0.08544703
Se       1.64370606      19.82759093      15.37518296      -0.02900479      -0.03524620      -0.03510351
Se      13.15675907      19.83639600      15.34323408       0.00254823      -0.06262810       0.08871164
Se      24.67577374      19.83907070      15.38916611      -0.06487215      -0.04443745      -0.07387752
Se       1.64891057       3.14753807      19.73325886      -0.01035961      -0.06250171       0.03533275
Se      13.15776101       3.13598340      19.73153756      -0.04032755      -0.01730749      -0.01091172
Se      24.66605022       3.12553684      19.72044797       0.02197334       0.00752028       0.05357938
Se       1.64687473       7.30489230      19.72796664      -0.06059430      -0.01271324       0.01899446
Se      13.15206554       7.30982894      19.73937399       0.03339186      -0.03258892      -0.00066206
Se      24.66256866       7.29190153      19.74111460       0.05857193       0.05698374       0.01215299
Se       1.62783963      11.48434239      19.74773860       0.10356295      -0.03479843      -0.00206443
Se      13.17392473      11.48624624      19.73865760      -0.05477779      -0.04416757      -0.03835211
Se      24.69639287      11.45552356      19.72692615      -0.12486770       0.08303772       0.03192043
Se       1.65007588      15.64958379      19.74396729      -0.04176046      -0.00363554      -0.06137067
Se      13.15733884      15.65427410      19.72882276      -0.02338381       0.00633339       0.03693453
Se      24.66864869      15.64748556      19.73428117       0.01123732      -0.00668811       0.00512779
Se       1.63384531      19.83657785      19.73810176      -0.00868669      -0.00730756      -0.01596768
Se      13.16872654      19.81575656      19.71457474      -0.05197460       0.04902648       0.06159757
Se      24.67383194      19.85603380      19.74423159      -0.02459135      -0.11288602      -0.07286801
Se       9.86930175       1.04788979       2.08271291      -0.03017863      -0.06042229      -0.11100049
Se      21.37730375       1.05734093       2.07376280       0.07852062      -0.02438090      -0.00598758
Se      32.90622224       1.04388252       2.08688244      -0.01087964       0.00053921      -0.02418807
Se       9.86729439       5.20066411       2.07866660       0.02369922       0.04909559      -0.05531761
Se      21.37055105       5.21472277       2.08730579       0.09819003      -0.00368800      -0.04694483
Se      32.91291999       5.22815737       2.08164056      -0.05110276      -0.04455548      -0.04662265
Se       9.89894956       9.38594055       2.07941836      -0.12124910       0.00808241       0.01208478
Se      21.38660643       9.40139096       2.07482129       0.08679669      -0.03837783      -0.02852682
Se      32.92431750       9.38651479       2.08950831      -0.04510861       0.05174366      -0.06693850
Se       9.88077761      13.56558748       2.08086147       0.01228564      -0.01013083      -0.01375898
Se      21.39360028      13.56947164       2.07336833      -0.06356133      -0.03182122       0.01250758
Se      32.90011317      13.56256138       2.05860559       0.07058236       0.02488981       0.05283462
Se       9.88326570      17.72764959       2.07326057      -0.06397476       0.07351676      -0.02654331
Se      21.39746808      17.74839520       2.05769052      -0.07541595      -0.06416710       0.08507137
Se      32.90621057      17.74459868       2.07595720      -0.03692695      -0.04241595       0.01823992
Se       9.88828696       1.03542660       6.41605051      -0.06193693       0.04474879       0.05307841
Se      21.39909089       1.03827381       6.41895552      -0.00850590       0.00893090       0.03843474
Se      32.90554393       1.05595025       6.42390840       0.03413541      -0.06076753       0.02047836
Se       9.89820617       5.20935499       6.43741103      -0.17030570       0.05271947       0.00844685
Se      21.37879631       5.21814991       6.43520345       0.14974999       0.02626579      -0.00669558
Se      32.89223411       5.24599208       6.43158755       0.07832663      -0.09655370       0.02200450
Se       9.86990159       9.40151331       6.45468347       0.05549748      -0.07463342      -0.08638546
Se      21.40225200       9.37981115       6.43868001      -0.04048928       0.02046750      -0.05916108
Se      32.88831533       9.40084000       6.42018904       0.12862010      -0.03450814       0.07222141
Se       9.86681420      13.56588007       6.44099099       0.02535629       0.01403046      -0.04408929
Se      21.38837829      13.58110293       6.44377332      -0.01533241      -0.05812151      -0.07339542
Se      32.91357630      13.55361808       6.45353460      -0.01873286       0.09444638      -0.05380081
Se       9.86681556      17.75737665       6.45676287       0.06553565      -0.05851494      -0.11480730
Se      21.39611420      17.75032136       6.40571173       0.00825164      -0.05796088       0.10734711
Se      32.90517903      17.75102289       6.44578603       0.00377382      -0.07118022      -0.04094834
Se       9.86264898       1.04070745      10.77228115       0.06063319       0.03094969       0.08275716
Se      21.39511756       1.02481138      10.80894958       0.00054099       0.05296679      -0.04795401
Se      32.91895630       1.03890100      10.80285756      -0.06909428       0.01517700      -0.03638913
Se       9.87267523       5.22015289      10.78617221       0.01023430       0.01897435      -0.00204045
Se      21.39721256       5.20132196      10.77934550      -0.07062066       0.02725803       0.09536851
Se      32.90590977       5.21562138      10.80036782      -0.00445982       0.01005289      -0.00638867
Se       9.86835114       9.41067987      10.79925085      -0.01040345      -0.06025270       0.00123988
Se      21.39331645       9.39379529      10.80767390      -0.02056785      -0.01055367      -0.02932045
Se      32.91288923       9.39624313      10.80500464      -0.05325653      -0.01385664      -0.00960072
Se       9.85660007      13.54804361      10.79688422       0.12505891       0.08349475       0.01429868
Se      21.38901089      13.57171019      10.79784497      -0.00044007      -0.00374294      -0.00586227
Se      32.91294770      13.55345614      10.79753736      -0.03630366       0.04624613       0.01206877
Se       9.86143565      17.74386981      10.77886195       0.06565989      -0.02419874       0.08109371
Se      21.39447073      17.72531124      10.79380953       0.00145281       0.06879807       0.02192876
Se      32.91607833      17.74227503      10.78118820      -0.02137721      -0.02993737       0.04600931
Se       9.86812227       1.02863088      15.14180110      -0.01078648       0.08814445       0.05945951
Se      21.39216426       1.04924765      15.16315474      -0.02944369      -0.03461782      -0.03417061
Se      32.91315532       1.04352556      15.15601478       0.02260260       0.00087281      -0.02516377
Se       9.86411552       5.21333301      15.14553520       0.04619731      -0.02476248       0.06805204
Se      21.38253598       5.21862308      15.15757062      -0.02916046      -0.02398226       0.01730674
Se      32.93777633       5.20427585      15.15749770      -0.13217861       0.03725364      -0.00992297
Se       9.86060889       9.38794509      15.15527775       0.09057866       0.04684140       0.03289127
Se      21.39943643       9.38732628      15.15683549      -0.06766793       0.08044713      -0.02195695
Se      32.90282587       9.37781243      15.15222766       0.03018068       0.04555477       0.02736330
Se       9.87102685      13.56665035      15.16433816      -0.04700889      -0.00930529      -0.05648160
Se      21.38864167      13.56339033      15.14154055       0.03144623       0.01157787       0.08760806
Se      32.91252640      13.55895311      15.16621992      -0.00108707       0.03960492      -0.01834897
Se       9.88801061      17.73812208      15.14851557      -0.03985897      -0.01512797      -0.01004847
Se      21.39082065      17.74348825      15.15559348      -0.01997607      -0.01707468       0.02526406
Se      32.90148867      17.74563655      15.16372447       0.07354654      -0.01919303      -0.04149091
Se       9.87138332       1.02710401      19.52441635      -0.01861077       0.11004403      -0.01768602
Se      21.38331436       1.04578808      19.52136414       0.03685094       0.02636598      -0.02490764
Se      32.88823958       1.04445549      19.52499789       0.13072396       0.00487865      -0.05064120
Se       9.88121774       5.21890747      19.50008070      -0.03834148      -0.04988914       0.08178926
Se      21.40375844       5.22184404      19.50781937      -0.07794097      -0.02604416       0.06368909
Se      32.89925142       5.22004605      19.52665041       0.05008181       0.01247381      -0.00763017
Se       9.86996658       9.40007820      19.50192490       0.14634281      -0.04705214       0.03587480
Se      21.38056304       9.37117931      19.51087851       0.02391155       0.10354470       0.05080483
Se      32.92220983       9.41240097      19.52219847      -0.06116238      -0.09756218      -0.01946265
Se       9.86846192      13.56369569      19.52458596      -0.01789831      -0.01612833      -0.02599358
Se      21.37535782      13.56018710      19.53420149       0.16226031       0.02423184      -0.06995113
Se      32.89667195      13.55842184      19.51998450       0.03539566      -0.01132967      -0.00168643
Se       9.87767764      17.73375119      19.52062221       0.01240034       0.03702705      -0.01128786
Se      21.39706703      17.75961575      19.51859012      -0.01059955      -0.07152826      -0.01421586
Se      32.90671608      17.75527575      19.51436090      -0.01700894      -0.08065633       0.00500571
Sn       7.11160765       1.04614716       1.79356297       0.02347027       0.00264055      -0.05201104
Sn      18.64460307       1.04267451       1.76831728      -0.07299261      -0.02831671       0.03610277
Sn      30.15655033       1.05597622       1.77046005       0.02026139      -0.07532915       0.00187022
Sn       7.12240371       5.21385896       1.77582417      -0.02950368       0.00247910       0.01662984
Sn      18.64347183       5.22216686       1.78712949      -0.08081030      -0.02648836      -0.04470946
Sn      30.14736592       5.20127397       1.78542510       0.07936810       0.05846034      -0.00650588
Sn       7.11979199       9.41020607       1.80164631       0.11170318      -0.11141097      -0.02131306
Sn      18.66089950       9.38242184       1.78849491      -0.13786572       0.06954301      -0.02891843
Sn      30.16584355       9.39940649       1.77925724       0.01022925      -0.03665447       0.02345941
Sn       7.13764283      13.56591684       1.78408228      -0.02413702      -0.00926300       0.04138238
Sn      18.62561427      13.57235974       1.78019710       0.08610398      -0.04663582      -0.02135482
Sn      30.16178181      13.56826323       1.78461058      -0.05473060      -0.00533966      -0.01874140
Sn       7.12439404      17.74786723       1.78081229       0.03073030      -0.04070955      -0.00148266
Sn      18.62644063      17.74569078       1.77471116       0.12396039       0.00443293      -0.01507472
Sn      30.14389140      17.72977880       1.78563454       0.07116872       0.03185830      -0.02293016
Sn       7.12388599       1.02231784       6.14006854       0.05731276       0.09286207       0.01663347
Sn      18.65268491       1.03913171       6.14225033      -0.03303618      -0.02891415      -0.01152908
Sn      30.16756393       1.05159956       6.15412261      -0.04946878      -0.01612017      -0.08733649
Sn       7.09712564       5.23506904       6.15026910       0.19492393      -0.07861147      -0.02872948
Sn      18.66560736       5.20991055       6.12627059      -0.15792611       0.00393457       0.09530629
Sn      30.15720621       5.21498009       6.15044174      -0.05329134       0.07173218      -0.07658741
Sn       7.13560046       9.39095001       6.14149802      -0.06154302      -0.00762539       0.02606386
Sn      18.64621980       9.38925966       6.14050528      -0.00256407      -0.01126582       0.04094430
Sn      30.16750537       9.40442073       6.15474476      -0.08639400      -0.02883280      -0.07605088
Sn       7.12316888      13.54451420       6.14242304      -0.01624593       0.06752694      -0.01294323
Sn      18.63341280      13.56461484       6.13719419      -0.01164036       0.01864630       0.04064738
Sn      30.15692662      13.55551933       6.13109792      -0.00108167       0.03213725       0.05713508
Sn       7.13707810      17.73030465       6.14390841      -0.08743567       0.03228032      -0.01283558
Sn      18.65053775      17.74914427       6.15185358      -0.00600766      -0.00993312      -0.02713980
Sn      30.16016269      17.74724126       6.15763598      -0.02928311      -0.03940288      -0.04875001
Sn       7.12910141       1.02527265      10.49972364      -0.05288484       0.06186819      -0.01274645
Sn      18.64795630       1.03737371      10.52121004      -0.00971649       0.00751219      -0.02498745
Sn      30.15650222       1.04449716      10.51625642       0.06280551       0.02514698      -0.00687612
Sn       7.12302268       5.21949658      10.51400021      -0.01782310      -0.01710726      -0.04058450
Sn      18.62626989       5.21488083      10.51330051       0.09490345      -0.01320626      -0.02614845
Sn      30.15779002       5.23240715      10.48924974       0.00325427      -0.06981674       0.02066831
Sn       7.10795116       9.39951981      10.51366705       0.07778486      -0.03830078      -0.05402930
Sn      18.63906010       9.39582689      10.51246105       0.01122864      -0.04702817      -0.03068388
Sn      30.14899539       9.38475447      10.50690624       0.06290596       0.06174747      -0.02036582
Sn       7.13389207      13.55425252      10.50302950      -0.08285502       0.00134384       0.01491560
Sn      18.63855023      13.57009168      10.50492199       0.01412388      -0.03767995      -0.01183918
Sn      30.15167518      13.57839775      10.49961640       0.03359193      -0.04902135       0.01596508
Sn       7.12193022      17.72408625      10.49787272      -0.03302170       0.03491944       0.00440143
Sn      18.64615336      17.74320725      10.51100415      -0.00332959      -0.01905578       0.00901055
Sn      30.16264384      17.76087837      10.49753039      -0.01920297      -0.09932375       0.03067846
Sn       7.10865694       1.03313914      14.85907634       0.04539264       0.02690561       0.03888229
Sn      18.63124933       1.04458128      14.87863941       0.03675463      -0.06750900      -0.01134081
Sn      30.17253061       1.04868775      14.88752558      -0.06290452      -0.01264353      -0.06129236
Sn       7.12128745       5.20140862      14.87664464       0.00071230       0.04148741      -0.05437701
Sn      18.62260666       5.21018378      14.87131398       0.07386506      -0.01414434       0.00129884
Sn      30.15611021       5.21582428      14.85430496       0.08772219      -0.03972049       0.01859905
Sn       7.12474316       9.40185957      14.86631254      -0.05580838       0.01327424      -0.00671087
Sn      18.63269034       9.37934756      14.85801691       0.05369270       0.00546111      -0.00004739
Sn      30.16105736       9.39525897      14.85810779      -0.01805255       0.01573552       0.01114727
Sn       7.10274359      13.57011222      14.85713578       0.06132646      -0.03331971       0.01367825
Sn      18.64788323      13.55835099      14.85623385      -0.05210702      -0.00607815       0.01431380
Sn      30.15866574      13.58948908      14.87360316       0.00982443      -0.12266825      -0.01331259
Sn       7.12621337      17.74358974      14.84860170       0.03700833      -0.03424001       0.08736567
Sn      18.62976920      17.71489194      14.88341160       0.04569180       0.08117896      -0.08441980
Sn      30.17240788      17.74392941      14.86746401      -0.11000064       0.00820366      -0.01784226
Sn       7.10933528       1.04145167      19.24514066       0.06729119      -0.06537210      -0.06450043
Sn      18.64230676       1.03799820      19.20963603      -0.04581969       0.00473336       0.05172069
Sn      30.17093708       1.04294383      19.20964940      -0.14797743       0.02730987       0.04141968
Sn       7.11560852       5.20495843      19.22589930       0.05236170       0.07710379       0.01809782
Sn      18.64306599       5.21270164      19.23498720       0.06073163      -0.02685664      -0.04826892
Sn      30.15792204       5.22835693      19.22364480      -0.03170145      -0.02470705       0.01968223
Sn       7.15530444       9.38617806      19.21818344      -0.18695401      -0.00612447       0.02868149
Sn      18.63072960       9.38971354      19.21002138       0.01387708       0.01121653       0.05865105
Sn      30.16007965       9.37276991      19.22883345       0.02829135       0.06783232      -0.01105367
Sn       7.11133866      13.56209915      19.23326214       0.04447159       0.05026594      -0.04947461
Sn      18.66403298      13.55513208      19.22571356      -0.17311996       0.03787995       0.00944689
Sn      30.14989643      13.55721339      19.22006700       0.00226120       0.00400921       0.03817371
Sn       7.13309185      17.73512067      19.24970986      -0.00474182       0.02174295      -0.09384229
Sn      18.64515239      17.72990112      19.22354968      -0.01063720       0.04390255       0.05345253
Sn      30.14911555      17.74800192      19.21082894       0.01340001      -0.01492724       0.05703440
Sn       4.37817648       3.12477378       2.58661928       0.06424431       0.00252523       0.04271724
Sn      15.92005801       3.14449466       2.58508783      -0.02348523      -0.05459489      -0.03148593
Sn      27.42303994       3.13863550       2.56834480      -0.03522200       0.00006499       0.07685407
Sn       4.37313942       7.30914475       2.56973303       0.14720608      -0.01768214       0.04818515
Sn      15.90707434       7.30597465       2.58227101       0.01533428       0.01240351      -0.02601904
Sn      27.43324675       7.31309913       2.58173981       0.02649589      -0.03942924      -0.03578769
Sn       4.38716584      11.47994514       2.57382771      -0.01240949      -0.00248375       0.03178927
Sn      15.90576312      11.50504925       2.58161171      -0.01430186      -0.05667706      -0.05317758
Sn      27.42837128      11.47181271       2.58999054      -0.02894799       0.05771822      -0.08007477
Sn       4.39918872      15.66063018       2.58193872      -0.05059609       0.02074762      -0.00024384
Sn      15.91806931      15.66567351       2.58262080      -0.05811736      -0.07248328      -0.00405075
Sn      27.42272271      15.66190237       2.57074856       0.00280059      -0.07663992      -0.01650143
Sn       4.38440639      19.82651280       2.56237624      -0.03677944      -0.00194707       0.09801365
Sn      15.91600336      19.81741666       2.57507490      -0.07064182       0.06408861      -0.03113160
Sn      27.42173604      19.82743867       2.57635328      -0.02050432      -0.00732326       0.00798154
Sn       4.39091228       3.13009296       6.93642338       0.01967674       0.00443133       0.02855042
Sn      15.89999547       3.14150398       6.91984963       0.05806310      -0.03880221       0.04089361
Sn      27.42181168       3.12600024       6.94508161      -0.01918603       0.04428072      -0.03406432
Sn       4.37704306       7.29978053       6.93987009       0.03424875       0.04720147      -0.01110338
Sn      15.91842815       7.30810023       6.92905881      -0.01199276       0.00990948       0.05261893
Sn      27.41899406       7.31363889       6.92888594       0.03804704      -0.04925296      -0.00792086
Sn       4.39079955      11.47877631       6.93703586      -0.01222981      -0.02024712       0.00352059
Sn      15.93468493      11.47474020       6.94539134      -0.09053355      -0.01124243      -0.01650842
Sn      27.41620582      11.48414500       6.94960157       0.05850658      -0.01525962      -0.02854088
Sn       4.38570635      15.65240964       6.93194089       0.01958028       0.04146541       0.02169191
Sn      15.89628337      15.66332461       6.93535368       0.09178526      -0.07269086       0.00544007
Sn      27.39973271      15.67061022       6.93287274       0.15301751      -0.07523318       0.00989700
Sn       4.38912226      19.84345486       6.93947627      -0.03542353      -0.07426165       0.03213455
Sn      15.90609405      19.81476407       6.92454535       0.01094116       0.06640623       0.02274134
Sn      27.42220497      19.83067390       6.94394894       0.00882139       0.03102501      -0.03144017
Sn       4.38677338       3.13089182      11.28362547      -0.01096703       0.00710316       0.04449043
Sn      15.91232908       3.13230330      11.32173418      -0.03608133      -0.05436346      -0.04888751
Sn      27.42394363       3.12126255      11.30149034       0.02117489       0.00742482      -0.01397515
Sn       4.38830799       7.30912546      11.30226649       0.00235111       0.00413631       0.00567874
Sn      15.89512795       7.28842095      11.30462665       0.14763736       0.10113053      -0.01632971
Sn      27.43769998       7.30557186      11.31013054      -0.04231773      -0.01671397      -0.03791225
Sn       4.40171408      11.48153544      11.29385266      -0.05671747      -0.00275570       0.04776263
Sn      15.90968049      11.49093825      11.30729648      -0.01637077      -0.04187662      -0.05124453
Sn      27.43135129      11.47424206      11.29997403      -0.07316210       0.01991650       0.00872401
Sn       4.39039872      15.65244328      11.31367715       0.00983391      -0.00421470      -0.02976740
Sn      15.88425567      15.65326204      11.30120261       0.15054449      -0.00625141       0.00403691
Sn      27.41015382      15.65967433      11.29475257       0.05286895       0.01374979       0.01701297
Sn       4.38801567      19.84553362      11.31209731       0.04213164      -0.06572156      -0.06588517
Sn      15.91347228      19.83085357      11.30035077       0.01322380      -0.01962712      -0.01359513
Sn      27.44386260      19.83506748      11.29450207      -0.06991240      -0.06304876       0.04965620
Sn       4.37758497       3.13635762      15.66254276       0.05983469      -0.05307830      -0.01098951
Sn      15.89343803       3.13497510      15.66041118       0.06123516      -0.03609925      -0.00838156
Sn      27.42917548       3.13510664      15.65701881      -0.05749229      -0.01173972       0.05068258
Sn       4.39791444       7.29979933      15.65877263      -0.02508400       0.04418839      -0.01317227
Sn      15.90240470       7.31608812      15.66029573       0.00904587       0.01338445       0.00246929
Sn      27.43759326       7.32261323      15.65571426      -0.06341866      -0.08969206       0.05996929
Sn       4.36237604      11.48931261      15.65968173       0.13938815      -0.12133713      -0.04029720
Sn      15.89906555      11.47298034      15.65895331       0.06495681       0.02605260       0.03044877
Sn      27.43684076      11.48046663      15.67593744      -0.05306617       0.00651117      -0.02486249
Sn       4.39652819      15.64986435      15.65919788      -0.02161684       0.03528056       0.04416514
Sn      15.91334350      15.66116092      15.67306938       0.01528011      -0.08621682      -0.01239848
Sn      27.42125345      15.65470872      15.66894185      -0.02286582      -0.02381029      -0.00517014
Sn       4.38774634      19.81569640      15.65503874       0.00110444       0.03086940       0.04008721
Sn      15.90531706      19.83366787      15.67569123       0.01240175      -0.02782326      -0.07836471
Sn      27.41030836      19.82107235      15.65952283       0.05800926      -0.00365509      -0.00477110
Sn       4.39953316       3.12540813      20.01990801      -0.02004451       0.00170968       0.01702636
Sn      15.89360749       3.13552331      20.02259134       0.05152497      -0.01842954       0.06038871
Sn      27.41732838       3.12809411      20.03547529       0.00351897       0.04065957      -0.10424230
Sn       4.38153712       7.29636178      20.03672785       0.09226641       0.07991327      -0.09141627
Sn      15.90848516       7.31147592      20.02822285      -0.01611314       0.01006805       0.04674518
Sn      27.42351549       7.30129539      20.03252091      -0.02440348      -0.01779165      -0.01828379
Sn       4.40320936      11.48970940      20.01235061      -0.08075889      -0.05741929       0.05093595
Sn      15.92077652      11.47528817      20.01665504      -0.01032024       0.06882365       0.04093651
Sn      27.42217556      11.48717880      20.02960997       0.09500174      -0.03133731       0.02475296
Sn       4.38903213      15.66133332      20.02560394       0.01696415       0.01510514       0.01807173
Sn      15.90199770      15.64587631      20.02830768       0.04429059       0.01246526      -0.01310661
Sn      27.42304365      15.63920161      20.03267695       0.00917366       0.04557563      -0.00796994
Sn       4.38678324      19.84296700      20.01017543      -0.00788738      -0.05319338      -0.00746036
Sn      15.90592033      19.82004602      20.01445111       0.03962975       0.07089555       0.08184317
Sn      27.41900092      19.84475147      20.02563903       0.02854194      -0.09355590      -0.05713349
Sn      10.14173962       3.11240295       3.94613953       0.02725483       0.05123537       0.12606227
Sn      21.66043349       3.12435236       3.96111265      -0.00618842       0.00370273       0.03489537
Sn      33.15921770       3.12977242       3.97363045       0.10314144       0.02997275      -0.02636029
Sn      10.16588511       7.28583392       3.95533923      -0.06046163       0.03459639       0.02211878
Sn      21.65725578       7.30623559       3.95115543       0.09231563       0.00210133       0.04707715
Sn      33.19876217       7.30521360       3.96212169      -0.09926362      -0.01260227       0.04077156
Sn      10.16558384      11.47870704       3.96735619      -0.01538431      -0.02006245      -0.02393136
Sn      21.65829014      11.46516250       3.95724954       0.03578467       0.09235885       0.00670771
Sn      33.20380930      11.48519773       3.96609850       0.00570391      -0.00733011      -0.00623754
Sn      10.13989297      15.66206917       3.94977622       0.06197800      -0.03186401       0.02719138
Sn      21.65012756      15.64736779       3.98289807       0.00523743       0.04360412      -0.10543885
Sn      33.20091848      15.64844429       3.95661117      -0.12803528       0.02651813      -0.03061707
Sn      10.13325308      19.82782611       3.96497328       0.09085202      -0.01613687      -0.00315743
Sn      21.67369368      19.83615287       3.96137894       0.03869011      -0.04884855      -0.03641466
Sn      33.18749982      19.82003941       3.96872358      -0.04858102       0.00239972      -0.02687594
Sn      10.14458438       3.13528382       8.32824205       0.01358568      -0.03684037      -0.05367997
Sn      21.66648616       3.13863464       8.30875305       0.00373612      -0.03222634       0.04992008
Sn      33.17129038       3.12798864       8.31002440       0.03521049       0.04750672       0.03106945
Sn      10.14558806       7.30103208       8.33755387      -0.01810620      -0.01758786      -0.04731239
Sn      21.66722346       7.31507267       8.32747378      -0.01231078      -0.04953709       0.04694555
Sn      33.17658287       7.30611555       8.33175130       0.04217508       0.04574458      -0.01472090
Sn      10.16159072      11.47754442       8.30798193       0.01067064       0.03108775       0.07873553
Sn      21.64862010      11.47560339       8.30107802       0.08858434       0.01666664       0.08207506
Sn      33.19989059      11.48483685       8.31810037      -0.09414915      -0.04218711       0.03345331
Sn      10.13856023      15.66323785       8.31332066       0.08786423      -0.03191532       0.07133757
Sn      21.65561585      15.64529720       8.32559791       0.02066401       0.07023339       0.01798897
Sn      33.18814752      15.66488338       8.33490675      -0.05081305      -0.05821894      -0.02517144
Sn      10.14966444      19.83725102       8.31774704       0.02120415       0.03622233       0.06531158
Sn      21.64758946      19.82033449       8.31639443       0.03362991       0.01375971      -0.00094627
Sn      33.17561967      19.81745205       8.31984594       0.02068710       0.06663168       0.02822769
Sn      10.15585687       3.14784181      12.66830745      -0.02908022      -0.07780854       0.02799641
Sn      21.65292078       3.12277478      12.69321834       0.08213904       0.02916530      -0.02983339
Sn      33.17989007       3.12344815      12.69272825      -0.05012247       0.02501327      -0.02236461
Sn      10.15922060       7.30459078      12.67739872       0.00141610       0.04130676       0.00868981
Sn      21.66850092       7.30244570      12.68315078       0.00742468      -0.04048508      -0.02817266
Sn      33.17681554       7.31402821      12.68805972       0.00532145      -0.04651320      -0.01338165
Sn      10.16001371      11.49223078      12.69015072      -0.05268653      -0.03620731      -0.01191925
Sn      21.66073335      11.48927078      12.69021756       0.04728004      -0.01585761      -0.02231148
Sn      33.20797322      11.48196855      12.69253780      -0.13771782      -0.01334722      -0.01747107
Sn      10.15256094      15.65196567      12.68297300      -0.03553899       0.01641009      -0.04775229
Sn      21.66874056      15.65816842      12.69710480      -0.02620806      -0.02331512      -0.02781618
Sn      33.18502805      15.64832777      12.68229238      -0.05295380      -0.01532551      -0.02345027
Sn      10.13642733      19.84365794      12.68014918       0.08400351      -0.03663147      -0.02191530
Sn      21.67547253      19.82981131      12.68859823      -0.08172983      -0.05644793       0.00720983
Sn      33.18076506      19.81916781      12.67587556      -0.02758939       0.02716570       0.00894790
Sn      10.16694136       3.13182885      17.05791747      -0.10761636      -0.01542987      -0.08695667
Sn      21.67964719       3.12658077      17.05089985      -0.06625305       0.04841084      -0.01010859
Sn      33.18238965       3.11911710      17.04481000       0.04157340       0.04580578       0.02135788
Sn      10.15553177       7.29978809      17.04341636      -0.00550062      -0.02201790      -0.03243691
Sn      21.66406445       7.32589367      17.02832431       0.01684304      -0.08070252       0.05418944
Sn      33.18695598       7.30224499      17.04025825       0.01094187      -0.03416226       0.00722156
Sn      10.14687794      11.48554128      17.05391003       0.05726294      -0.02618001      -0.03668918
Sn      21.66765829      11.48979493      17.05935313       0.01319003      -0.04808275      -0.06856817
Sn      33.19010330      11.47340559      17.05160921      -0.01543327      -0.00018730      -0.01398632
Sn      10.15464871      15.64480034      17.03097041      -0.05122165       0.05311845       0.03361524
Sn      21.64557037      15.65365521      17.04964519       0.07255833       0.01227226      -0.04778958
Sn      33.17012173      15.66341698      17.04818698       0.10194820      -0.05462495       0.02668024
Sn      10.16315123      19.83075116      17.03600146       0.00930993      -0.02524229      -0.01610254
Sn      21.67038093      19.83374691      17.04118856      -0.01235313      -0.00906008       0.01046552
Sn      33.16751861      19.82804876      17.03665635       0.07681779      -0.00097516       0.05893464
Sn      10.16086558       3.12661747      21.42501469      -0.11214899       0.01892784      -0.09682175
Sn      21.64455654       3.13203719      21.42206260       0.15812766       0.01241735      -0.07000377
Sn      33.17303650       3.12909723      21.40373832       0.05388434       0.03479875       0.04166843
Sn      10.14281903       7.30722461      21.39481446       0.06989349      -0.02214876       0.00466817
Sn      21.66468843       7.30993832      21.40561774       0.00065938      -0.03373685      -0.04343646
Sn      33.17193750       7.31508023      21.41507125       0.00815254      -0.02940908      -0.00876991
Sn      10.13924483      11.46592644      21.39824943       0.09492791       0.04183203       0.06070745
Sn      21.67125085      11.48162325      21.41566950      -0.07805941      -0.05740312      -0.01853001
Sn      33.17867804      11.46962018      21.41695714      -0.03117199       0.04546807       0.00029494
Sn      10.14412222      15.65482214      21.39226943       0.03348366      -0.00773540       0.06120193
Sn      21.66010002      15.66305062      21.40060593       0.00556788       0.02346603       0.06729522
Sn      33.19008458      15.62964646      21.40217476      -0.01955349       0.07923748      -0.01533466
Sn      10.14794316      19.84447120      21.39607805      -0.02677127      -0.09138580       0.04179727
Sn      21.67250806      19.83761512      21.40055378       0.01819837      -0.00612394       0.03774746
Sn      33.17820430      19.82846209      21.39295383      -0.01835602      -0.02061270       0.06882453
Sn       1.36222944       1.05640579       0.40446442       0.00599813      -0.03511802       0.01987138
Sn      12.88135438       1.04477539       0.40504692       0.00619259       0.03005028       0.03784575
Sn      24.40678741       1.03808053       0.41458508      -0.06195043       0.05165726      -0.10807213
Sn       1.37994395       5.22450639       0.39080827      -0.12513258      -0.03561506       0.03882458
Sn      12.87271965       5.21446777       0.39984552       0.03907547       0.00759405       0.02092621
Sn      24.38137839       5.22268074       0.41211249       0.04582069      -0.00326899      -0.05299166
Sn       1.37254521       9.38506242       0.39129384      -0.03931537       0.01570219       0.00645300
Sn      12.88592041       9.39028991       0.40366828      -0.01570467       0.07423681      -0.03571234
Sn      24.40508052       9.40274185       0.38791664       0.03172507      -0.05157288       0.01781339
Sn       1.36899666      13.56227734       0.39825152      -0.00983747       0.03718121       0.04977018
Sn      12.89156598      13.57564335       0.41322231      -0.06241064      -0.05546976      -0.03350742
Sn      24.40331921      13.56481192       0.39670909       0.00973454       0.01858848       0.03364483
Sn       1.34943292      17.75339858       0.39601889       0.01041661      -0.03609603      -0.00640754
Sn      12.88798086      17.74679119       0.38678472      -0.05842004      -0.00487990       0.05689992
Sn      24.38982985      17.75547143       0.40214223      -0.00536762      -0.08153938      -0.02272961
Sn       1.36097461       1.04238120       4.77120412       0.00823902       0.04156933      -0.02814943
Sn      12.89226504       1.02898385       4.77668459      -0.04209599       0.05927274      -0.12208607
Sn      24.40872479       1.04211992       4.74842453      -0.03067235       0.01951237       0.04858308
Sn       1.37732056       5.22249808       4.74576377      -0.02156382      -0.02790239       0.06690511
Sn      12.88060111       5.24899554       4.76050677      -0.04093410      -0.12181211      -0.00312098
Sn      24.39164360       5.20764884       4.77806274       0.06236994       0.00877445      -0.00559914
Sn       1.37525807       9.40589734       4.76282360      -0.00244503      -0.06352536      -0.04902603
Sn      12.89546208       9.38333974       4.76196766      -0.00905724       0.06209918       0.01177267
Sn      24.40193385       9.40564742       4.76353018      -0.04887785      -0.08184821      -0.01712030
Sn       1.36052535      13.56655283       4.74357762       0.05298228       0.03783298       0.02763622
Sn      12.85971220      13.57422550       4.75659431       0.08928886      -0.05382092       0.01632786
Sn      24.39644914      13.57422156       4.77431185      -0.00946389      -0.06063925      -0.09656218
Sn       1.37212535      17.75928196       4.76536864      -0.02705567      -0.09812262      -0.06967926
Sn      12.88594403      17.74240512       4.74748679      -0.04240021       0.01357049       0.00766384
Sn      24.40862330      17.71554657       4.75447922      -0.05183072       0.09762828       0.02299869
Sn       1.36700977       1.03574705       9.11692807      -0.06211468       0.03995476      -0.00643529
Sn      12.90131565       1.05468491       9.11458735      -0.10577511      -0.03436714       0.00575450
Sn      24.39436765       1.03087463       9.12849557      -0.01348397      -0.00900489      -0.02722332
Sn       1.36428305       5.19806914       9.12245347       0.00339854       0.05167199       0.00808920
Sn      12.88731168       5.22736522       9.12071208      -0.02061987      -0.05598422       0.00168216
Sn      24.39533660       5.23759646       9.12151149       0.04480975      -0.07292368       0.00317711
Sn       1.37397609       9.38642755       9.12834473      -0.04059979      -0.02605602      -0.04034167
Sn      12.86836560       9.38720227       9.10936289       0.11108718       0.06327316       0.05242786
Sn      24.39301358       9.40432765       9.11532237       0.04371241      -0.05102899       0.01393101
Sn       1.37396303      13.58108474       9.12116986      -0.13522545      -0.07030753      -0.00582304
Sn      12.89285956      13.57122295       9.12261000      -0.03928725      -0.07767632      -0.05375204
Sn      24.40656647      13.58431147       9.11507294      -0.02454131      -0.05192440       0.03671886
Sn       1.35718846      17.72982208       9.13138991       0.05574192       0.07170756      -0.03971834
Sn      12.89421557      17.73463086       9.10008549      -0.01627211       0.01594396       0.05351814
Sn      24.39231574      17.74547977       9.12077840      -0.00414310       0.01484697       0.00891446
Sn       1.36858395       1.03841122      13.49269040      -0.01471658       0.00088256      -0.01308387
Sn      12.88635381       1.04950930      13.48414017      -0.07197390      -0.01170760      -0.05895165
Sn      24.40430699       1.04823039      13.47326876       0.01869488      -0.00565901       0.02866320
Sn       1.37051110       5.22564889      13.49410093       0.00801854       0.01518367      -0.02577601
Sn      12.88708296       5.20808130      13.47443634      -0.07022121       0.01840627      -0.02406530
Sn      24.39471183       5.21962845      13.48132715       0.01155880       0.00776232       0.01056547
Sn       1.35554315       9.38052575      13.46156429       0.09722108       0.01266435       0.08709753
Sn      12.85172714       9.39050513      13.50575181       0.12465469       0.05432894      -0.04533392
Sn      24.41703111       9.38204063      13.48404854      -0.05247418       0.02908050      -0.00174545
Sn       1.35213468      13.55279099      13.47057478       0.11736178       0.06706976       0.10319342
Sn      12.88066690      13.56408749      13.48507653       0.04561694       0.00156436       0.02319098
Sn      24.40569547      13.56254328      13.48291153       0.02490549      -0.04084866       0.01053118
Sn       1.35584235      17.72655626      13.46755979       0.05484835       0.04537025       0.08038742
Sn      12.88941437      17.73662215      13.46383831       0.05456944       0.02694903       0.03409710
Sn      24.39843242      17.72751302      13.49915330       0.04820312       0.08428214      -0.03506414
Sn       1.36099225       1.05045973      17.85454302      -0.02753494      -0.01380526      -0.02044144
Sn      12.87337261       1.04440514      17.84918807       0.08253247      -0.01872771      -0.02371863
Sn      24.40021877       1.04725568      17.83035710       0.02715017       0.00124124       0.02147118
Sn       1.37232083       5.21287217      17.84714790      -0.00855521       0.02742381      -0.04327278
Sn      12.89212178       5.22442189      17.84714059      -0.07627763       0.00768055      -0.00585808
Sn      24.40548459       5.22461792      17.85860840      -0.04006934      -0.03916518      -0.04962547
Sn       1.36643996       9.39346252      17.85297406       0.09098030      -0.00106436      -0.01901574
Sn      12.87801801       9.37847027      17.84858569      -0.00942192       0.07207849       0.01628456
Sn      24.39700307       9.37974767      17.84865881      -0.01512136      -0.01778532      -0.03888328
Sn       1.38109180      13.54961466      17.85387664      -0.04856975       0.06499778      -0.02135339
Sn      12.85755122      13.56190922      17.86205855       0.10982945      -0.01131922      -0.03409621
Sn      24.39578007      13.56681147      17.85128205       0.05491713      -0.03462380      -0.02002671
Sn       1.34961574      17.74072218      17.84429552       0.03166443      -0.00680997       0.01675527
Sn      12.90154510      17.72764382      17.83983800      -0.12069244       0.00790674      -0.05156484
Sn      24.38977975      17.72965711      17.85492742       0.05335087       0.07281364       0.01929136
600
Lattice="34.548424260000004 0.0 0.0 0.0 20.870445700000005 0.0 0.0 0.0 21.8055194" Properties=species:S:1:pos:R:3:forces:R:3 mlfcs_configuration_id=6 mlfcs_sampling_method=gaussian pbc="T T T"
Se       4.11739422       1.03775663       0.10106866       0.00692295       0.01968780       0.02551162
Se      15.62763686       1.03857427       0.09360267       0.06901237       0.05436060       0.05748409
Se      27.14682325       1.03972024       0.09866916      -0.02571487       0.01591802       0.05138411
Se       4.11867817       5.21980034       0.10068065      -0.02029365      -0.02927414      -0.00277454
Se      15.63182779       5.23898768       0.12745146       0.02320994      -0.04183560      -0.07096907
Se      27.13886965       5.20825697       0.09565309      -0.01580603       0.03552007       0.03032550
Se       4.12769825       9.38750529       0.10864387      -0.06506924       0.00050368      -0.02007956
Se      15.65323880       9.39138594       0.11330961      -0.11759206       0.02748374      -0.03770407
Se      27.15461476       9.38560841       0.11683874      -0.03796422       0.04804004      -0.03134152
Se       4.10863070      13.57897852       0.10037261      -0.03647218      -0.05805117       0.02144497
Se      15.62848945      13.55469485       0.09700453       0.01370921       0.03163027       0.03863778
Se      27.14514291      13.54126624       0.10391380      -0.01055913       0.07194401       0.01898849
Se       4.11204797      17.74756898       0.11047693      -0.00644745      -0.04811245      -0.01314314
Se      15.62619276      17.73508336       0.10390094      -0.01047267       0.00835196       0.03437581
Se      27.16427011      17.73144582       0.09904952      -0.04655309       0.00218967       0.02348104
Se       4.10584187       1.02849191       4.47042104      -0.00377540       0.10339399      -0.00680223
Se      15.63529816       1.05613992       4.47776509      -0.03528915      -0.06048450       0.00793705
Se      27.17338172       1.04257358       4.46474571      -0.13180223      -0.00100243       0.01041495
Se       4.10412545       5.22436723       4.46853635       0.06059382      -0.06401437      -0.00943287
Se      15.63978179       5.20601020       4.47086704      -0.00128888       0.02766415       0.01680745
Se      27.15146255       5.21879180       4.46051834      -0.01511761      -0.03240462       0.03125952
Se       4.12902096       9.41199366       4.45624756      -0.07571325      -0.09232721       0.02289777
Se      15.64047357       9.36271208       4.47403710      -0.01861424       0.15228177       0.01135085
Se      27.13070900       9.38624091       4.45422076       0.04676568       0.00955497       0.06997447
Se       4.11497159      13.57396766       4.44877787       0.02047567      -0.04125333       0.10851420
Se      15.62967433      13.56044604       4.48316149       0.00224170       0.00536387      -0.07108458
Se      27.15372816      13.55380755       4.46263806       0.06295551       0.06164471       0.00214753
Se       4.13268875      17.74681252       4.45816867      -0.09798006      -0.00899178       0.05282550
Se      15.63059842      17.73731777       4.46197118      -0.01721138       0.01090000       0.00026386
Se      27.13230843      17.73289265       4.48124300       0.10853419       0.01097287      -0.08417083
Se       4.11331626       1.04227977       8.82986014       0.01955293       0.01760639      -0.00607657
Se      15.65545054       1.04340105       8.83939434      -0.07299580       0.00483524      -0.07435712
Se      27.14342875       1.04071831       8.82858041       0.06944895       0.01096449      -0.06172965
Se       4.10938638       5.21536427       8.83733539       0.04753302       0.00742680      -0.01780677
Se      15.62526548       5.21740234       8.83554222       0.03612190       0.00432271      -0.04558231
Se      27.14116589       5.22835558       8.82918372       0.05400881      -0.05038770      -0.05006954
Se       4.11547648       9.37140911       8.82471876       0.03361592       0.11016019       0.06021997
Se      15.63698505       9.40894404       8.83413377       0.00790464      -0.07130788      -0.03968822
Se      27.16067271       9.37939954       8.82718666      -0.03310289       0.05738945      -0.00129721
Se       4.12933517      13.55670239       8.83810711      -0.03436845       0.03190018      -0.03880257
Se      15.64060231      13.56832696       8.82516786      -0.02918269      -0.00769941      -0.00602717
Se      27.13954760      13.58333352       8.83477351       0.00425222      -0.10991757      -0.03375945
Se       4.12053387      17.73554037       8.82883360      -0.01497640       0.01083765      -0.03597866
Se      15.63491630      17.74366762       8.83579829       0.00556792      -0.02990252      -0.05298886
Se      27.14158583      17.72500290       8.82929769      -0.00947962       0.05156718      -0.01759579
Se       4.09965554       1.04007570      13.18446686       0.15317027       0.08740424       0.03880700
Se      15.63818661       1.06313828      13.17011286      -0.08907543      -0.08171883       0.11634128
Se      27.17215240       1.04098155      13.19303685      -0.11797486       0.00828473      -0.00202882
Se       4.10297939       5.22737016      13.18997349       0.10233647      -0.05015342      -0.03486073
Se      15.63265446       5.19802759      13.19029673      -0.02786901       0.08456466      -0.00676217
Se      27.15786883       5.21503866      13.20130076      -0.05330427       0.01853216      -0.02824492
Se       4.12845666       9.38507963      13.20550990      -0.02838315       0.00560874      -0.00889203
Se      15.63372208       9.39198804      13.19054858       0.01011257       0.00035809      -0.04365434
Se      27.15010371       9.36518925      13.18770370       0.03281061       0.13270789       0.02877272
Se       4.10348824      13.58184308      13.20541959       0.07141751      -0.06903778      -0.09465986
Se      15.64178851      13.56319505      13.17947861      -0.04286472      -0.00664864       0.04366977
Se      27.14283474      13.58500614      13.18263679      -0.07729341      -0.09223709       0.00893568
Se       4.09357176      17.74997052      13.20456379       0.09436504      -0.03195393      -0.07780387
Se      15.64986129      17.75005235      13.20157396      -0.11253791      -0.06277134      -0.01593845
Se      27.14993989      17.71890591      13.18983757      -0.00895325       0.09253829      -0.01935322
Se       4.12334344       1.04195960      17.54885428      -0.00651720       0.00800525       0.03953857
Se      15.62362795       1.03329492      17.56904413       0.05889803       0.02797569      -0.02985050
Se      27.16815401       1.04328583      17.55347788      -0.07737941       0.00238747      -0.00532198
Se       4.10731913       5.22382719      17.56825913       0.01843818      -0.04117105      -0.09642153
Se      15.61797682       5.22204028      17.55605287       0.08019037      -0.02539412      -0.01759299
Se      27.15468661       5.23382962      17.57102283      -0.02999904      -0.06430019      -0.10831643
Se       4.11479287       9.39822232      17.55150498      -0.01058393      -0.01172315      -0.05248987
Se      15.62694798       9.39419873      17.55737764       0.09433834       0.00120615      -0.03115818
Se      27.15157984       9.38267877      17.54602704       0.02876946       0.04913008       0.03167174
Se       4.11256864      13.55715529      17.55379804       0.05582381       0.04838210      -0.00368882
Se      15.63745025      13.57537490      17.54208642       0.03437639      -0.05522909       0.02427064
Se      27.14363576      13.58112542      17.54901768       0.06000918      -0.08227873       0.01766984
Se       4.11742902      17.73791783      17.56199295       0.02106037      -0.00423185      -0.08773312
Se      15.64498722      17.75080095      17.55092832      -0.07683707      -0.05540148      -0.02712271
Se      27.14068619      17.75892100      17.55922573       0.00792278      -0.07363146       0.00855177
Se       7.39544729       3.14459506       4.25027797      -0.00074214      -0.06074083       0.03907563
Se      18.93026233       3.14513972       4.24641924      -0.09713984      -0.06575037       0.06506159
Se      30.43811430       3.13817878       4.28178315      -0.01736745      -0.02646279      -0.15544115
Se       7.39259086       7.31877145       4.25580752       0.06724255      -0.08442590      -0.02279835
Se      18.90374165       7.30324614       4.25565871       0.04468560       0.00729534       0.01551746
Se      30.42170781       7.30756775       4.26521216       0.03236832      -0.01992952      -0.02009895
Se       7.40239588      11.47311671       4.25414934      -0.04570350       0.03381408       0.00280356
Se      18.91610986      11.48070837       4.26673237      -0.06040014       0.00895766      -0.05386279
Se      30.43501611      11.46450819       4.25001085      -0.06672447       0.07258109       0.06416593
Se       7.40167409      15.66386554       4.26861253      -0.04437846      -0.02553425      -0.03231120
Se      18.93390215      15.65393044       4.26326715      -0.16591567      -0.00488684      -0.02753152
Se      30.41775210      15.65692311       4.24488142       0.04257665      -0.01859414       0.03293295
Se       7.39938848      19.85701182       4.25866961       0.02602682      -0.16917433      -0.05057397
Se      18.90751716      19.83079133       4.25046331      -0.00402655      -0.00168453      -0.02367676
Se      30.42268927      19.84774483       4.26630218       0.02856968      -0.07362800      -0.07374201
Se       7.40346924       3.12643864       8.61363005      -0.03380544       0.00122946       0.01848007
Se      18.93158011       3.13342265       8.58590989      -0.08004379      -0.01669961       0.13964838
Se      30.45650610       3.13218750       8.62017163      -0.09256337      -0.01606741      -0.03102390
Se       7.41088082       7.30910004       8.62420703      -0.06113301       0.01654897       0.00000077
Se      18.91191806       7.29214806       8.61954027       0.00295598       0.06976973       0.02627094
Se      30.44661286       7.29796799       8.60945770      -0.13136896       0.04820072       0.00292302
Se       7.41222407      11.47396270       8.61263234      -0.06744487       0.00530302       0.05914570
Se      18.91242385      11.47788535       8.60100156      -0.00418708      -0.02503968       0.06749988
Se      30.42690331      11.48083884       8.61897032       0.00402147      -0.02181704      -0.03966690
Se       7.41159381      15.67101822       8.63186278      -0.03809761      -0.10524180      -0.06270495
Se      18.92530182      15.65113695       8.61050725      -0.11296613      -0.00681371      -0.02169320
Se      30.43247550      15.65848008       8.62495732      -0.01785055      -0.03169134      -0.06605183
Se       7.40624473      19.82550168       8.62460657       0.00943452      -0.01171122      -0.05377930
Se      18.92876402      19.83551504       8.61641781      -0.07245309      -0.01837985      -0.02177613
Se      30.42395823      19.81813776       8.60992577       0.05721190       0.03800514       0.00693485
Se       7.40258463       3.13555491      12.96369650      -0.04190529      -0.05346176       0.06750079
Se      18.91111534       3.13278973      12.96884502       0.00000346      -0.01176494       0.04625389
Se      30.43663576       3.12728259      12.97060762      -0.03310606      -0.01077669       0.02106282
Se       7.40054593       7.30836882      12.96935653      -0.02975709      -0.01589281      -0.01211960
Se      18.91372917       7.30912280      12.97022092       0.01487920      -0.02534521       0.01503038
Se      30.41571915       7.28908028      12.97366131       0.08093326       0.06822167      -0.00963793
Se       7.38682969      11.47505794      12.99449125       0.10988596       0.02544265      -0.05822454
Se      18.90236931      11.47570911      12.99916487       0.08773834       0.02271888      -0.09984738
Se      30.43637802      11.47485792      12.97627300      -0.06563616      -0.03067269       0.01027376
Se       7.40430750      15.66958201      12.97253329      -0.06891635      -0.04008255       0.04859906
Se      18.90857919      15.63883621      12.97887278       0.04349686       0.07289964      -0.04212307
Se      30.41823984      15.64798647      12.96875499       0.11198055       0.00225297       0.03814703
Se       7.41075511      19.82162947      12.98181113      -0.07668533       0.02198213       0.00318982
Se      18.90011438      19.82802850      12.96581022       0.14885244       0.02467684      -0.00470684
Se      30.42804023      19.84882546      12.98716357       0.01915642      -0.09612947      -0.01974121
Se       7.39872975       3.16234629      17.32979396       0.01236729      -0.16322579       0.03254006
Se      18.92780746       3.11503013      17.33650648      -0.06880250       0.07688088       0.02029756
Se      30.41881882       3.13292963      17.33950541       0.10759237      -0.01904563       0.00950099
Se       7.39693723       7.31536659      17.33327471       0.02008098      -0.04780326       0.04511620
Se      18.91942381       7.31265156      17.32411349      -0.01032547       0.00857674       0.08539376
Se      30.42481257       7.30498463      17.34524724       0.05340707       0.01138506      -0.03365476
Se       7.41422625      11.47637636      17.33578099      -0.02700428      -0.02842889       0.02691548
Se      18.90742934      11.48183500      17.33597453      -0.00482929      -0.00994470      -0.03787958
Se      30.42955639      11.47759627      17.34446198       0.01045904       0.01630281      -0.02436561
Se       7.39437657      15.64490271      17.34326294       0.06452583       0.05229031      -0.01831760
Se      18.88589805      15.64658751      17.32743261       0.13885801       0.02379886       0.02420169
Se      30.44432930      15.64821497      17.33333854      -0.09247067       0.01675537       0.03044456
Se       7.39952765      19.82075971      17.33491922       0.05059996       0.02288595       0.00306635
Se      18.91712640      19.82249303      17.33465353       0.02279593       0.04163028       0.02558733
Se      30.42219514      19.81517560      17.33955207       0.11662978       0.05043965      -0.02081090
Se       7.40307988       3.11607531      21.70764900      -0.00160605       0.06979492      -0.09156143
Se      18.92379577       3.14010377      21.70304847      -0.00711181      -0.01939258      -0.04885832
Se      30.43866754       3.15220713      21.69703437      -0.03745065      -0.08251600       0.05860204
Se       7.38955696       7.28910542      21.71760632       0.10767408       0.09048914      -0.10017652
Se      18.93384317       7.29520002      21.69277637      -0.04360346       0.04294760       0.00872164
Se      30.42905681       7.31668858      21.68717656       0.04606936      -0.09938745       0.07110554
Se       7.38034768      11.50021030      21.70317332       0.07700223      -0.08758306      -0.03743113
Se      18.92069943      11.47648410      21.70470743      -0.02072415      -0.00575285      -0.01361748
Se      30.41715466      11.47012595      21.70110116       0.05620511       0.05039764       0.04276502
Se       7.37730497      15.64959912      21.69640794       0.12010064       0.01883334       0.06851931
Se      18.91312839      15.64711348      21.69009066      -0.00230511       0.02617747       0.05698012
Se      30.41407640      15.65407177      21.69704834       0.10490429      -0.01768379       0.02261363
Se       7.38626106      19.82733877      21.69710008       0.00995902       0.01338820       0.01649463
Se      18.91154506      19.80514449      21.70687726       0.05096017       0.10829147      -0.04708492
Se      30.41996621      19.82734614      21.69196690       0.06576896       0.01111247       0.01987784
Se       1.63805590       3.14187980       2.29211525       0.08872237      -0.03761837      -0.02005129
Se      13.16938498       3.13366073       2.29076050      -0.06407954       0.01158694      -0.03847056
Se      24.65641462       3.12718163       2.28454997       0.06958912       0.01486478      -0.00847752
Se       1.65417981       7.29938372       2.28944766      -0.09059651       0.02973038       0.01141846
Se      13.16034216       7.31602277       2.28546162       0.00123518      -0.02879124       0.00442110
Se      24.68250387       7.28739736       2.27065887      -0.01954030       0.07703892       0.03733443
Se       1.61910972      11.48639501       2.29353573       0.08637198      -0.03764977      -0.06514413
Se      13.16705286      11.47176154       2.28116359       0.01367963       0.01014675       0.01588514
Se      24.67301553      11.49297215       2.30373734       0.00880398      -0.06387620      -0.03780284
Se       1.64988125      15.65593449       2.30015289      -0.04257159      -0.00548038      -0.03375666
Se      13.15552616      15.64871488       2.28550884      -0.02416955      -0.02318224       0.01526559
Se      24.66443886      15.65087420       2.27562498       0.14652986       0.00831723       0.04979183
Se       1.65219324      19.83215031       2.30109469      -0.10818416      -0.02319792      -0.07860775
Se      13.14179176      19.84573040       2.27107431       0.06466013      -0.10121460       0.06976457
Se      24.66224292      19.82050522       2.29987627       0.08077228       0.02551002      -0.05316684
Se       1.64419890       3.12791858       6.63997667       0.00488106       0.00743625       0.03896993
Se      13.14432523       3.14168315       6.65588934       0.09033509      -0.07697947       0.00143303
Se      24.68775051       3.13432506       6.62148192      -0.05204129       0.00728805       0.09076928
Se       1.62949734       7.30909473       6.64420577       0.01741896      -0.00243212      -0.02968010
Se      13.15249617       7.29341375       6.65737884      -0.01609519       0.04743929      -0.03128332
Se      24.67878793       7.30945793       6.64156692      -0.02655460      -0.02832340       0.01074857
Se       1.64370604      11.46515751       6.64660466      -0.03369985       0.07290214      -0.01664350
Se      13.13280529      11.46285399       6.64467982       0.09186669       0.08419427       0.03938006
Se      24.69797719      11.46052772       6.63546714      -0.11141686       0.03006541       0.01513809
Se       1.64411091      15.67031852       6.64992467       0.02352301      -0.07442253      -0.02887756
Se      13.16510600      15.64924826       6.64279673      -0.04141392       0.00736345      -0.00097814
Se      24.67504785      15.64604140       6.65514564      -0.03986194       0.03044618      -0.05756731
Se       1.62588045      19.83561331       6.64829607       0.02308127      -0.02641883       0.00133472
Se      13.15593738      19.81028359       6.63810506       0.05755847       0.06693625       0.02086988
Se      24.68621252      19.82462745       6.65068693      -0.06767903       0.04372619       0.02202938
Se       1.63314785       3.13006633      10.99528530       0.03684318      -0.00296343       0.01596874
Se      13.15908341       3.13406328      11.01221297      -0.02258785      -0.01666099      -0.03894831
Se      24.66519016       3.12693637      11.01437876       0.04591984       0.00455069       0.04079135
Se       1.63982879       7.30157296      11.02804150       0.02707960      -0.00429615      -0.08472999
Se      13.14857469       7.31525020      10.99746002       0.14082112      -0.05167862       0.05956734
Se      24.68077382       7.31152754      11.00390317      -0.01940902      -0.02099542      -0.00906790
Se       1.62976840      11.45883082      11.00285569       0.11194749       0.07322721       0.01971616
Se      13.16334677      11.46775887      11.00997631      -0.02912666       0.03438457      -0.02666607
Se      24.65946171      11.47619627      10.99753638       0.07893913       0.01713522       0.08337561
Se       1.64116336      15.64761350      10.99710316       0.01084215       0.02334212       0.04027133
Se      13.15149585      15.64328273      10.99586758       0.03561494       0.02295771       0.06228927
Se      24.68505346      15.64902255      10.98698457      -0.05394257       0.01241724       0.09416997
Se       1.63571036      19.83586055      11.00139324       0.03462247      -0.01341948       0.03900112
Se      13.17306202      19.81814681      11.01404090      -0.18161093       0.02616691      -0.02824371
Se      24.68459239      19.83121538      10.99526188      -0.06180200      -0.02764042       0.06690668
Se       1.63251848       3.14205759      15.36206459       0.07548219      -0.09383994       0.09152733
Se      13.16784135       3.12605403      15.37152508      -0.06116507       0.01916367      -0.00555948
Se      24.66036493       3.12427420      15.36135764       0.01092751       0.01812898       0.05450878
Se       1.64419916       7.30537799      15.37473720       0.04956513      -0.01018275       0.00182839
Se      13.15317936       7.29514371      15.37193799       0.00104674       0.04645199      -0.01366595
Se      24.66393012       7.31523024      15.36896548       0.10748698      -0.05170021      -0.00035958
Se       1.63868181      11.48315691      15.36934706      -0.00994033       0.02572663       0.01913573
Se      13.14150407      11.46792086      15.38068779       0.05342301       0.08168969      -0.03390629
Se      24.67506485      11.46171948      15.37363182      -0.01357657       0.10147209      -0.05700260
Se       1.63635058      15.64387930      15.35866198       0.00219445       0.02757653       0.06921915
Se      13.16808388      15.63296931      15.36173538      -0.05455456       0.09449265       0.03125487
Se      24.67542727      15.66840793      15.37564928      -0.04383387      -0.03476366      -0.02554380
Se       1.63348292      19.84200697      15.35655947       0.02103851      -0.06353186       0.04594667
Se      13.16073795      19.83159128      15.36129955      -0.04509789      -0.04017233       0.01484397
Se      24.68120194      19.82157453      15.37706213      -0.08324594       0.06075092      -0.01774837
Se       1.62354721       3.13370664      19.72709352       0.10191121      -0.02569441       0.01037252
Se      13.16958162       3.12991707      19.74370688      -0.01061009       0.02590399      -0.07276028
Se      24.67930213       3.12908179      19.73909128      -0.07781444       0.00773860      -0.04060558
Se       1.64988375       7.30916512      19.70829157      -0.03440484      -0.02856860       0.07846259
Se      13.14825898       7.31828707      19.71865512       0.03936385      -0.07327274       0.08361748
Se      24.68305062       7.31151054      19.72395706      -0.04160144      -0.02990810       0.06271813
Se       1.62199085      11.47284603      19.75199473       0.09839370       0.03006180      -0.05445942
Se      13.14945181      11.47059258      19.72123876       0.10644443       0.02002422       0.08467093
Se      24.68637385      11.47610600      19.72495552      -0.04539003       0.02514197       0.00788896
Se       1.65607791      15.65841924      19.72202168      -0.06704112       0.03151113       0.02604128
Se      13.14584875      15.66420600      19.73138246       0.02902155      -0.05304395       0.03927029
Se      24.65873537      15.63479314      19.72005420       0.06066784       0.05798567       0.10156704
Se       1.62954832      19.80625267      19.72021951       0.05604125       0.09454655       0.05630429
Se      13.14889378      19.82208662      19.74814368      -0.02535911      -0.02429779      -0.08389929
Se      24.67155757      19.82503769      19.73630714      -0.07837572       0.04281819       0.00556714
Se       9.87282524       1.04731384       2.07788827      -0.01495830      -0.03158990       0.00420115
Se      21.39256572       1.07097697       2.08419338      -0.00699506      -0.11960052      -0.06425735
Se      32.89666404       1.04701453       2.06716475       0.01229873      -0.04572480       0.03916916
Se       9.87966093       5.20364957       2.06400433      -0.02348948       0.05211136       0.04671857
Se      21.39477891       5.22737814       2.08010857       0.06676285      -0.06955346      -0.01922801
Se      32.91602243       5.22113963       2.07680708      -0.06532521       0.00851899       0.00206440
Se       9.87016149       9.39962060       2.08533092      -0.02824758      -0.04056830      -0.04141296
Se      21.39070868       9.39032133       2.09099618      -0.02221188       0.00009208      -0.09351421
Se      32.90727704       9.39224744       2.07992438      -0.00201198      -0.02622338      -0.03164984
Se       9.87422036      13.55737632       2.07886178      -0.00696968       0.04787273       0.02113160
Se      21.39095229      13.58400222       2.08296661      -0.04250213      -0.09481307      -0.05210324
Se      32.90152644      13.57287033       2.07816078       0.01061986       0.01418997      -0.00655428
Se       9.88829268      17.73442432       2.07696888      -0.05279442       0.02569429      -0.00835052
Se      21.39034890      17.74025366       2.06623013       0.00214149       0.02553565       0.06551660
Se      32.91324038      17.74384851       2.08793436      -0.03405872       0.03169832      -0.02242667
Se       9.87509816       1.03919391       6.44407895       0.00663572       0.03983383      -0.05225859
Se      21.38339780       1.05416215       6.44701442       0.05526149      -0.08815745      -0.06728888
Se      32.92005405       1.04707854       6.43132104      -0.04729603      -0.02446980       0.02433409
Se       9.87629030       5.22120213       6.43058459       0.01954828       0.01607163       0.01610779
Se      21.40467100       5.22320229       6.42726377      -0.07985914      -0.03028258       0.02596033
Se      32.92631000       5.21837534       6.42524497      -0.05771838       0.01162950      -0.01957155
Se       9.86689588       9.40636842       6.45443585       0.00508635      -0.07817967      -0.10656600
Se      21.40143469       9.40468367       6.44835216      -0.05633682      -0.06645337      -0.06967692
Se      32.91305042       9.39478100       6.44158463      -0.04894036       0.00170832      -0.01818093
Se       9.88255857      13.55816375       6.44350559      -0.07178887       0.03128547      -0.04356976
Se      21.40592601      13.56351600       6.43305353      -0.09750798       0.00006857      -0.00480134
Se      32.91224672      13.55908315       6.42301782      -0.03250917       0.02544773       0.05009134
Se       9.88667561      17.73515935       6.43637049      -0.09492697       0.02496010      -0.01009234
Se      21.38523859      17.75243641       6.44471776      -0.00036839      -0.01828355      -0.03002855
Se      32.90507386      17.72786989       6.43271670       0.05280940       0.06070575       0.00631020
Se       9.88089995       1.04519866      10.79838086      -0.03741315      -0.02101905       0.02865932
Se      21.39345683       1.05090027      10.79687129      -0.01032085      -0.03593522       0.03170455
Se      32.91198139       1.03344311      10.82282839       0.00333303       0.08163504      -0.16964840
Se       9.87235983       5.21943738      10.80295454       0.01667043      -0.00321995      -0.04051244
Se      21.38723193       5.21747969      10.79724664      -0.00298888      -0.01933811       0.01467431
Se      32.89834088       5.22178734      10.78079766       0.04404530       0.00493732       0.05270390
Se       9.89272550       9.39942029      10.80368111      -0.07060050      -0.00767204      -0.02388400
Se      21.37397342       9.38356530      10.81118333       0.05964095       0.05550235      -0.05397095
Se      32.94899367       9.40343751      10.80765932      -0.19957866      -0.06507250      -0.05043890
Se       9.88044816      13.55710475      10.80724162       0.02282412       0.01692264      -0.00512251
Se      21.38032777      13.55347387      10.78455459       0.03520460       0.03608311       0.05318152
Se      32.91723849      13.56500558      10.79829846      -0.00797289       0.01062115      -0.03715004
Se       9.87504438      17.72841170      10.79058257       0.06156028       0.07168819       0.03888026
Se      21.38513558      17.72561615      10.79224778       0.06669519       0.10482742      -0.00249036
Se      32.89666819      17.74544562      10.80389959       0.06926627      -0.04160367      -0.02866635
Se       9.86226203       1.04034599      15.17695436       0.04917063      -0.03397423      -0.08836225
Se      21.38153221       1.04757868      15.15944898       0.01550837      -0.03567139       0.00110756
Se      32.91841013       1.04626697      15.15408081      -0.00874474       0.00694811       0.06200202
Se       9.87586606       5.21821514      15.15747681       0.03075269      -0.01311164      -0.05384787
Se      21.37814872       5.22983233      15.16905810       0.00810345      -0.03052639      -0.06225239
Se      32.89703937       5.21439419      15.15614291       0.09388879       0.04232217       0.02994847
Se       9.86363323       9.37282262      15.15168784       0.07360976       0.06489860       0.05351935
Se      21.38777582       9.37707825      15.16016354       0.04487358       0.06522196      -0.01196504
Se      32.91910982       9.39991175      15.15712691      -0.04942487      -0.01758675       0.00147931
Se       9.85679430      13.57273675      15.15985768       0.10208510      -0.04211168       0.01257372
Se      21.39558335      13.58494075      15.15014565      -0.01608810      -0.07639094       0.03022208
Se      32.87873310      13.55504518      15.16325421       0.14268312       0.06727091      -0.00798762
Se       9.87546768      17.72751250      15.14419659       0.00895430       0.06337924       0.06862408
Se      21.38779375      17.72720792      15.16360010       0.04935288       0.04829412      -0.04789311
Se      32.90336699      17.73339769      15.15081100      -0.02065417       0.04792409       0.04412737
Se       9.87782965       1.04373840      19.52151722      -0.03356119      -0.00007521      -0.04122004
Se      21.39314113       1.04259035      19.50916634       0.07322006      -0.01078132       0.04666227
Se      32.90017746       1.03936556      19.54014960       0.03503337       0.00738063      -0.10340600
Se       9.86171006       5.21321168      19.52048031       0.13441783       0.01560210       0.00495490
Se      21.38830651       5.22814114      19.51641266       0.05663686      -0.05669898      -0.04973478
Se      32.90513585       5.22554773      19.53760476       0.00395597      -0.01198587      -0.07476433
Se       9.88927340       9.39012405      19.51900250      -0.04967408      -0.02520714      -0.01680341
Se      21.39180703       9.39296058      19.51102416       0.00492962       0.00542103       0.02382914
Se      32.91684720       9.39355668      19.51904908      -0.04065104      -0.00933752      -0.00334556
Se       9.86248697      13.56620259      19.50056552       0.01151127      -0.00834507       0.07284420
Se      21.38552335      13.55994875      19.52236759      -0.02391729      -0.03033113      -0.03025804
Se      32.92627976      13.57129880      19.53398166      -0.10430736      -0.00504715      -0.04002102
Se       9.88165054      17.75091940      19.53806892      -0.05375428      -0.05897488      -0.10582593
Se      21.38402147      17.73169782      19.52618575       0.04026396       0.04795206      -0.08544785
Se      32.90744447      17.74187240      19.51701097       0.01371122      -0.03420970      -0.00880641
Sn       7.11924080       1.05951995       1.77144768       0.02608816      -0.07878003       0.05688701
Sn      18.64820873       1.04855459       1.76665616      -0.03296714      -0.00851451       0.02864542
Sn      30.14917842       1.03668540       1.78809214       0.01998040       0.04769565      -0.08197018
Sn       7.12153304       5.21654555       1.76786982       0.02349842      -0.02076399       0.07612676
Sn      18.66460392       5.21811340       1.78743630      -0.08584040       0.01638814       0.02897814
Sn      30.15207997       5.21087517       1.80157314       0.04881229       0.04830904      -0.10078342
Sn       7.10603617       9.39427706       1.77033126       0.05506077      -0.01130566       0.02902811
Sn      18.63729480       9.38510964       1.77258652       0.01578650      -0.02986367       0.00106329
Sn      30.15784064       9.36581029       1.77929141      -0.00556584       0.07605919      -0.01036780
Sn       7.12430049      13.55198696       1.79757848       0.01294155       0.09054024      -0.04219511
Sn      18.63540022      13.56320488       1.77652410       0.03039091       0.05936484      -0.02239668
Sn      30.15667057      13.57866117       1.80717645       0.00623469      -0.07455673      -0.08407693
Sn       7.13265978      17.75054880       1.79961057      -0.00939435      -0.05389942      -0.07647727
Sn      18.64383352      17.75537137       1.79037031       0.00981225      -0.10693078      -0.03677953
Sn      30.15892610      17.74317228       1.76423213       0.01889770       0.00543426       0.01358025
Sn       7.12812458       1.02787483       6.12729748      -0.03748949       0.10884057       0.07350948
Sn      18.64327359       1.03217152       6.14347904      -0.03248128       0.09218892      -0.01578878
Sn      30.15887057       1.04514280       6.13450896      -0.00682962       0.00627744       0.10752229
Sn       7.13419021       5.21650909       6.14796093      -0.04605383       0.03882401      -0.01168598
Sn      18.62938041       5.21561817       6.15452312       0.10691801       0.01372591      -0.02185545
Sn      30.16718800       5.20942852       6.13809459      -0.01399498       0.04786542       0.06611822
Sn       7.11531652       9.38492646       6.12955950      -0.01906765       0.00998218       0.06128988
Sn      18.63996305       9.39782197       6.13569965       0.03064371      -0.03441986       0.04975044
Sn      30.15658016       9.38928560       6.15410136       0.03131460       0.02932897      -0.02304137
Sn       7.11908747      13.55982756       6.13508996       0.05655779      -0.00469814       0.04852873
Sn      18.62996971      13.57087158       6.14219907       0.09354362      -0.02061725       0.03523898
Sn      30.15803433      13.57832614       6.15687098       0.01918670      -0.05004252      -0.07610559
Sn       7.10874104      17.74614721       6.14580665       0.08782578       0.03627133       0.01384715
Sn      18.63672890      17.74294570       6.12628634       0.00065407      -0.00584656       0.04383890
Sn      30.17211265      17.74481831       6.13489820      -0.08580661      -0.00761824       0.03668711
Sn       7.11934928       1.02628084      10.50151448       0.07576584       0.05853572      -0.00158782
Sn      18.63651749       1.03006120      10.51242108       0.02856619       0.07531138      -0.03624626
Sn      30.17025420       1.04303870      10.50159759      -0.05534586      -0.01778318       0.01118112
Sn       7.12955323       5.21720506      10.49383226      -0.02168255      -0.01477073       0.01856554
Sn      18.63481803       5.21443709      10.50713592       0.04291257      -0.04037278      -0.05382675
Sn      30.15757959       5.21950514      10.48940578      -0.03304365      -0.02647295       0.05591196
Sn       7.13185556       9.39152474      10.53018115       0.05475728       0.02427195      -0.06721256
Sn      18.63746846       9.39472517      10.53294625      -0.01371452      -0.00488947      -0.10536582
Sn      30.15942714       9.39081428      10.49478484       0.12548093      -0.00899465       0.04141201
Sn       7.14048605      13.55398871      10.50892527      -0.02309767       0.01805766      -0.01959471
Sn      18.63660925      13.56368636      10.49041473      -0.01284147      -0.01741488       0.01268205
Sn      30.17091750      13.56280175      10.49250316      -0.04678452       0.02622008       0.08923579
Sn       7.13773029      17.73462750      10.50800013      -0.06938146       0.03040344       0.02607665
Sn      18.64975897      17.74440921      10.48268770      -0.10059653      -0.00235959       0.06993068
Sn      30.16443979      17.73866273      10.50136377      -0.06660271       0.02295487       0.05104487
Sn       7.12411264       1.02721198      14.86767965      -0.03599876       0.07819320      -0.01469365
Sn      18.62770089       1.04045391      14.86732058       0.02594133      -0.00310912      -0.02402837
Sn      30.16822660       1.03511617      14.88027381       0.00278232       0.04658223      -0.01119366
Sn       7.13467192       5.21310735      14.85467044      -0.05238582      -0.01233546       0.01712560
Sn      18.62690664       5.22011898      14.85838509       0.00199084       0.00784682       0.00596220
Sn      30.16947979       5.21060621      14.85675123      -0.10127452      -0.03129988       0.02685212
Sn       7.12753965       9.38463012      14.86584344      -0.03749248       0.02516628       0.04386410
Sn      18.65120470       9.39266288      14.86696758      -0.06095906      -0.03890040       0.02695954
Sn      30.15953769       9.37455960      14.86967631       0.03788811       0.04182339      -0.03538818
Sn       7.12680270      13.57450870      14.87181604      -0.05118474       0.00199624      -0.01195760
Sn      18.63932532      13.57590365      14.86283163       0.00829382      -0.00239999       0.02544165
Sn      30.15995780      13.56246823      14.87037551      -0.12071003       0.00970994      -0.04674033
Sn       7.12143849      17.75614438      14.88593156       0.01150895      -0.06922062      -0.03359894
Sn      18.65008419      17.75508183      14.85036579      -0.05967627      -0.04520992       0.02184743
Sn      30.14327245      17.73645326      14.86617025       0.04786389       0.01413458      -0.05201110
Sn       7.12322131       1.02689095      19.23837773       0.04221936       0.08438931      -0.07012610
Sn      18.66288679       1.05612218      19.23771705      -0.07616998      -0.06363681      -0.02854746
Sn      30.15974742       1.03488233      19.22758710      -0.05105671       0.02329680      -0.00218351
Sn       7.14625927       5.21388156      19.22231224      -0.15479753       0.04263831      -0.00560068
Sn      18.65241784       5.22913831      19.21838280      -0.07981925       0.00156265      -0.03123631
Sn      30.15487138       5.21238239      19.22755871      -0.00256800      -0.00137835       0.02245042
Sn       7.13624025       9.38345031      19.23775846      -0.01676964       0.03220218      -0.05667181
Sn      18.64236132       9.41475251      19.23005012       0.00133038      -0.09585528      -0.02597226
Sn      30.15651704       9.39723773      19.22349035       0.02236320      -0.01673339       0.04930035
Sn       7.10725066      13.56317451      19.22429888       0.04592450      -0.00301581       0.00723939
Sn      18.62542163      13.56484937      19.20619071       0.03544075       0.04935230       0.05390694
Sn      30.15400936      13.56801569      19.22783178       0.08618751      -0.01611185       0.01816579
Sn       7.12109269      17.73881356      19.21902117       0.02243745      -0.03564811       0.03545311
Sn      18.64145297      17.74024973      19.21785932      -0.07785438      -0.01520966       0.00751655
Sn      30.16016322      17.74228339      19.22519972      -0.03405439      -0.02153307       0.01364336
Sn       4.41614867       3.12894985       2.57664255      -0.11141304       0.00621248       0.07156687
Sn      15.90385569       3.12064748       2.58629386       0.05767486       0.03089578      -0.04223420
Sn      27.41735857       3.12467739       2.57405247      -0.04764586       0.00797954      -0.01401871
Sn       4.38208876       7.28693518       2.57480549       0.08956233       0.06097591       0.01482179
Sn      15.91681297       7.30641581       2.59504064      -0.01283740      -0.04668075      -0.06193520
Sn      27.43173060       7.30968566       2.59826138       0.00292184      -0.02885563      -0.09156171
Sn       4.39096674      11.47916591       2.57932025      -0.06821701       0.00244665      -0.06034390
Sn      15.92351749      11.47856031       2.57295212      -0.05509767      -0.02750850       0.06062868
Sn      27.43009779      11.47037256       2.58476961       0.00085149       0.00386447      -0.05167576
Sn       4.39607661      15.65073027       2.58509301       0.03255460       0.04779722      -0.06804871
Sn      15.89320172      15.65425392       2.57480724       0.05745141      -0.01249555       0.00820281
Sn      27.45284367      15.65418255       2.57347097      -0.17589410      -0.00729356       0.03641415
Sn       4.37815518      19.83976750       2.57593456       0.09018490      -0.04100155      -0.01027558
Sn      15.90016610      19.83007643       2.58593208      -0.03345054       0.01172074      -0.02447906
Sn      27.43056057      19.82691094       2.58102679      -0.08344905      -0.01527245       0.01242807
Sn       4.39425857       3.13372084       6.94478762       0.01631942      -0.01302789      -0.02188943
Sn      15.91902415       3.13092102       6.93237074      -0.08200774      -0.00507369       0.06138267
Sn      27.42277812       3.13789468       6.92267349       0.04231936      -0.02416310       0.07842720
Sn       4.37413068       7.31362878       6.95574000       0.03083776      -0.05824255      -0.09122428
Sn      15.89542762       7.30545061       6.93654332       0.03365840       0.00976579       0.04141376
Sn      27.42161274       7.30750133       6.92761007       0.01111682      -0.02164673       0.02416075
Sn       4.38086602      11.47552264       6.93908501       0.04326966      -0.01277017       0.01029983
Sn      15.89682007      11.48643163       6.93636316      -0.01215323      -0.01703667       0.00359897
Sn      27.42000286      11.48136174       6.93924969       0.07909031       0.00942711       0.05186504
Sn       4.40031297      15.64329007       6.92656490      -0.05491257       0.03168892       0.07831783
Sn      15.90498174      15.65322666       6.92813121       0.01955099       0.03594121       0.03303909
Sn      27.41034350      15.65444727       6.93296096       0.02664176      -0.01288433       0.01130360
Sn       4.37741308      19.83636685       6.93422082       0.00636252      -0.04640994       0.01946198
Sn      15.91957773      19.82699814       6.94348636      -0.06458678      -0.00969813       0.02495043
Sn      27.42210604      19.80016181       6.92917091       0.05583904       0.06541287       0.06328236
Sn       4.39068110       3.13400417      11.28374591      -0.04504470       0.02781509       0.04597012
Sn      15.90754360       3.11913423      11.30398885       0.00872735       0.06500293      -0.06322505
Sn      27.42402703       3.13779189      11.31231088       0.00257990      -0.02036783      -0.02976273
Sn       4.39652810       7.31304995      11.29813923      -0.06133202      -0.03822624       0.02082555
Sn      15.93631079       7.29225782      11.29636509      -0.16435343       0.00624346       0.06092286
Sn      27.43323462       7.31197323      11.30651654      -0.02656144      -0.08052198      -0.04196295
Sn       4.39869138      11.45769958      11.31753564      -0.08800837       0.08133514       0.00737361
Sn      15.90604071      11.49099410      11.28130738       0.00631723      -0.06286847       0.04289730
Sn      27.42678672      11.47290013      11.30736385      -0.04756268       0.05727775       0.01893226
Sn       4.39510890      15.65628477      11.29105323      -0.02389782       0.03477729       0.03997796
Sn      15.90750993      15.65082262      11.30659575       0.00575548       0.04923041      -0.01164088
Sn      27.43411401      15.65412905      11.28888093       0.01485547      -0.02911625       0.00638077
Sn       4.39301399      19.85282420      11.31810270      -0.02501057      -0.12507767      -0.05579401
Sn      15.87833562      19.82734687      11.31096385       0.18599910      -0.00518031      -0.04521094
Sn      27.42239777      19.82211253      11.29897301       0.06732612      -0.00932572       0.01484335
Sn       4.39746009       3.11887218      15.67463342      -0.02722071       0.09502198       0.00817640
Sn      15.90751969       3.12100663      15.67399003       0.01953884       0.01589146       0.00435085
Sn      27.40876973       3.12480477      15.65702978       0.04440810       0.06045062       0.04024414
Sn       4.41337762       7.29759581      15.64119688      -0.09983450       0.01483411       0.11542391
Sn      15.90226147       7.30900152      15.67058738       0.00341792      -0.00816008      -0.03366913
Sn      27.44698644       7.31851499      15.66462576      -0.12365389      -0.08639090       0.00758381
Sn       4.38302404      11.49477543      15.65906089       0.03506479      -0.07334185       0.01785962
Sn      15.90149805      11.47436442      15.65022365      -0.02910321      -0.00274784       0.01234196
Sn      27.41957084      11.47620407      15.67005310       0.00471583       0.02965143      -0.02961382
Sn       4.38805731      15.63994970      15.64670881       0.00250414       0.04877161       0.04101322
Sn      15.91017532      15.65335055      15.65720340       0.04705040       0.04608253       0.00675387
Sn      27.41954647      15.65650916      15.67665199       0.02063228       0.03633935      -0.05479737
Sn       4.38413675      19.82760246      15.67232923      -0.01163021      -0.05050693      -0.02475903
Sn      15.90031848      19.82655711      15.66236657       0.04575581       0.00784168       0.00941352
Sn      27.41110809      19.82839842      15.66306198       0.08552926      -0.00580606      -0.00756732
Sn       4.39748904       3.11848801      20.02395011      -0.08125626       0.07112243      -0.01508450
Sn      15.92189696       3.15113187      20.03665170      -0.03512996      -0.00663567       0.00367678
Sn      27.41245032       3.13486740      20.01901894       0.09242176      -0.00836476      -0.00120614
Sn       4.39477720       7.29672385      20.00671568       0.01886273       0.02068868       0.00974880
Sn      15.90463445       7.31167204      20.02673041       0.00941983      -0.00687823       0.01574925
Sn      27.42825052       7.30660952      20.02789568       0.03324019      -0.02532229       0.01208938
Sn       4.39723332      11.47578834      20.02467932      -0.09861764      -0.01142206       0.02274425
Sn      15.92551220      11.47995547      20.02427604      -0.09120523      -0.04216917       0.01304180
Sn      27.42524988      11.47635607      20.01949685       0.03242301      -0.04317734       0.03674910
Sn       4.39402498      15.64756714      20.02239526       0.04022237       0.04874949       0.02407500
Sn      15.90017447      15.65370441      20.02969236       0.03038543       0.01827220      -0.00993583
Sn      27.42210189      15.63254051      20.02975413      -0.01099636       0.01749653      -0.00713816
Sn       4.39314004      19.81678112      20.03158311      -0.04264093      -0.02395263      -0.02000966
Sn      15.89409537      19.83716751      20.02327674       0.02982170      -0.05252772      -0.02622628
Sn      27.40153239      19.82849673      20.01978849       0.10985243      -0.02029776      -0.01402233
Sn      10.14444042       3.12297962       3.96172608       0.00668370       0.02049782      -0.01679320
Sn      21.66129844       3.11178997       3.97571891       0.05557726       0.10981535       0.00560442
Sn      33.17984817       3.12303753       3.95171400       0.04279021       0.01495066       0.00585128
Sn      10.15771623       7.29146170       3.96433811      -0.04873913       0.02847729      -0.04956842
Sn      21.66031384       7.29919182       3.95196264      -0.00924703       0.00303131       0.07322934
Sn      33.17608855       7.30453414       3.96535136       0.00887783       0.01144322       0.00718788
Sn      10.14215298      11.47762581       3.97188278       0.04968518       0.00019243      -0.02717525
Sn      21.64952404      11.47847247       3.95349040       0.08656114       0.03129350       0.04875391
Sn      33.17176491      11.48114527       3.95754572       0.03363998       0.00103982       0.02659419
Sn      10.13784088      15.66586713       3.97219913       0.05325400      -0.07067488      -0.01009457
Sn      21.64682727      15.63788001       3.96893281       0.18357949       0.08555781       0.00517087
Sn      33.17944301      15.66763004       3.96916160      -0.02376567      -0.04154707      -0.00432042
Sn      10.15300356      19.81649481       3.96791264      -0.00398209       0.05051034      -0.02436456
Sn      21.65339269      19.83976588       3.96721962       0.03594732      -0.05474745      -0.06008050
Sn      33.17404344      19.83476021       3.98541348      -0.00366506       0.01740693      -0.06619351
Sn      10.14783274       3.13586101       8.31978382       0.01302088      -0.00911342       0.02922757
Sn      21.66700385       3.11528453       8.32409682       0.04449656       0.10037325       0.03008931
Sn      33.18272752       3.14834685       8.30615208       0.09131108      -0.04089889       0.04171167
Sn      10.14720007       7.31732719       8.32168440       0.03748569      -0.02978189       0.01623343
Sn      21.66443691       7.29611343       8.31477606      -0.00091685       0.00855741       0.02380623
Sn      33.16403321       7.29815386       8.31420857       0.16207474       0.02906321       0.03549439
Sn      10.15118930      11.47065847       8.31930621       0.03648881       0.04066218       0.06638682
Sn      21.66162827      11.47805350       8.31881689       0.00409996       0.03071458       0.02901567
Sn      33.17167389      11.47939282       8.33477695       0.05049558      -0.00783165      -0.02182539
Sn      10.15129357      15.64652609       8.32287065       0.02409496       0.01401049       0.01321772
Sn      21.64564400      15.65123027       8.32009857       0.13209635      -0.01220304      -0.01345250
Sn      33.17295714      15.64510331       8.31999977       0.05893528      -0.01259064       0.00660180
Sn      10.15993349      19.83763404       8.31482086      -0.00708081      -0.04583521       0.04847424
Sn      21.66096955      19.82178754       8.33219757       0.08009274       0.03182540       0.00424294
Sn      33.18374681      19.82764133       8.32946474      -0.04587678      -0.00195368      -0.02665061
Sn      10.14404477       3.14399574      12.68518855       0.02676214      -0.05073455      -0.03081494
Sn      21.65759120       3.12806047      12.69752528      -0.00232878       0.02199765      -0.03129209
Sn      33.17804033       3.13985245      12.67895254       0.03247765       0.01450561       0.03118833
Sn      10.14235227       7.31104199      12.67646627       0.06057513       0.00582169       0.03842030
Sn      21.67437573       7.30796228      12.67647006      -0.01120813      -0.03857282       0.02958659
Sn      33.18157732       7.29895827      12.68869576      -0.01802859       0.00667768      -0.03321690
Sn      10.16888689      11.47482811      12.69054376      -0.10042980       0.01402468       0.02319162
Sn      21.66639473      11.47877573      12.68355394      -0.05892059      -0.00689322       0.00812474
Sn      33.17371757      11.48188655      12.68231858       0.06796916      -0.00141637       0.03975301
Sn      10.14096091      15.66276603      12.68619609       0.03441679      -0.03737714       0.00690722
Sn      21.66386934      15.66602486      12.66684518      -0.02808287      -0.08152328       0.03762906
Sn      33.19501996      15.64382242      12.68732132      -0.11580725       0.04088571       0.00650551
Sn      10.14412827      19.81748343      12.69834486       0.05764054       0.02320873      -0.07746777
Sn      21.68471249      19.82450118      12.68856074      -0.13138916       0.02341879      -0.03390482
Sn      33.18286166      19.84401850      12.66407449       0.00518775      -0.07999065       0.14382224
Sn      10.15378014       3.12308561      17.02275024      -0.01282556       0.02945620       0.09709751
Sn      21.66254503       3.14883736      17.03974938       0.04735958      -0.05617597      -0.00743631
Sn      33.19019940       3.14234360      17.04618291      -0.09500002      -0.04556199      -0.01132132
Sn      10.15121346       7.28728304      17.03914824      -0.00698226       0.06753568       0.00639036
Sn      21.67522040       7.30505281      17.04998329      -0.01843282       0.02272474      -0.00594018
Sn      33.18362332       7.32636605      17.04200468      -0.03900971      -0.04873789       0.00586318
Sn      10.16606301      11.47987019      17.06325187      -0.04704161      -0.01635445      -0.07541718
Sn      21.65390055      11.48038168      17.04237301       0.04883425       0.01474225      -0.02283683
Sn      33.18368647      11.49075892      17.05009797      -0.00657726      -0.02419598       0.02401806
Sn      10.16221274      15.64592208      17.03808153      -0.06549386      -0.00584409       0.02051726
Sn      21.66631138      15.65223777      17.04445128      -0.08509927      -0.03426531       0.01540379
Sn      33.17270543      15.66461081      17.04268150       0.08030856      -0.02353099      -0.00655611
Sn      10.16426969      19.82684087      17.05279417      -0.04585146      -0.04335715      -0.01191515
Sn      21.67172742      19.81847069      17.04998191      -0.03768710       0.03472720      -0.03585370
Sn      33.20157508      19.82922956      17.05532264      -0.11335705      -0.01180802      -0.08403231
Sn      10.15694163       3.13342737      21.40927854       0.01097032      -0.03684352       0.02101163
Sn      21.67162348       3.13798970      21.39389212       0.00435114      -0.03579121       0.02883434
Sn      33.18476478       3.12851610      21.40349849       0.00733389       0.02665599       0.04695393
Sn      10.16296855       7.29711455      21.39346607      -0.08409150       0.00455720       0.05894023
Sn      21.67410749       7.29024208      21.38813433       0.02570407       0.08146475       0.06342729
Sn      33.19137443       7.30603324      21.41214095      -0.05664321       0.01619982      -0.00445351
Sn      10.14558463      11.46469109      21.39555588      -0.03844144       0.08862286       0.03332962
Sn      21.66342844      11.46581113      21.41048428       0.03132562       0.03791106      -0.01909603
Sn      33.17766717      11.48038552      21.40896524      -0.05105753      -0.00790464       0.01111161
Sn      10.15387690      15.65761912      21.40397475      -0.13070364      -0.06948286      -0.00036396
Sn      21.66799002      15.65498438      21.38312485      -0.02517500      -0.05076706       0.10245315
Sn      33.18875701      15.65412372      21.41305424      -0.08850804       0.00627875      -0.00198406
Sn      10.13714047      19.82355570      21.39649846       0.03527115       0.06168221       0.07404500
Sn      21.67359634      19.81266227      21.39812721      -0.04368852       0.03251205       0.05054862
Sn      33.18763489      19.82041969      21.39812985      -0.03731488       0.00671810       0.05520212
Sn       1.37619987       1.05278942       0.40610366      -0.04605435      -0.00877901       0.00703456
Sn      12.89176119       1.04099651       0.39683702      -0.07703707       0.05127391      -0.03900437
Sn      24.39293470       1.04498960       0.39360397       0.02051934      -0.02082451       0.05687044
Sn       1.36280201       5.22340045       0.41072834       0.01833278      -0.03408937      -0.04710602
Sn      12.88725670       5.23534460       0.39182779       0.00271429      -0.04725065       0.05316716
Sn      24.38103577       5.22454772       0.39116461       0.06223340      -0.04804362       0.01987323
Sn       1.36439575       9.37379262       0.38989085       0.06203379       0.07508020       0.02327746
Sn      12.86825182       9.38714755       0.39493744       0.11344531       0.01742777       0.03500696
Sn      24.40031512       9.40388782       0.40565201       0.02602843      -0.01770343       0.01017708
Sn       1.35091098      13.57165988       0.40000050       0.06176248      -0.01234960       0.00991180
Sn      12.88229583      13.56535273       0.40092847      -0.02979007      -0.04884859       0.00368716
Sn      24.39249665      13.56375622       0.41072234      -0.00924202       0.00680489      -0.01829687
Sn       1.36009362      17.72936999       0.39826588       0.03609110       0.04442483       0.04465377
Sn      12.87196843      17.72244103       0.39543828       0.03407704       0.08216341       0.00411683
Sn      24.41390174      17.73928282       0.40066872      -0.01168414      -0.00964965       0.03080715
Sn       1.34583119       1.04769356       4.76092049       0.04389657      -0.00383849      -0.02272142
Sn      12.87662495       1.04511281       4.76168805       0.01910625       0.00097050       0.00776891
Sn      24.38882064       1.04663084       4.77195818       0.11417236      -0.02302778      -0.06716102
Sn       1.36485326       5.20872550       4.75821103      -0.02891699       0.03013591      -0.00013714
Sn      12.89182023       5.20513826       4.76577241      -0.02389910       0.02540902      -0.03907244
Sn      24.39263537       5.21982208       4.75434352       0.01232561       0.02256605      -0.02473398
Sn       1.36146251       9.40672153       4.74589596       0.05747845      -0.03838234       0.01982812
Sn      12.88812776       9.40880383       4.76684205      -0.01928582      -0.10160535      -0.05461114
Sn      24.38610455       9.37867478       4.75247058      -0.03476602       0.01058807      -0.00081039
Sn       1.36871176      13.56783915       4.74726986      -0.01915046       0.00825841       0.05374830
Sn      12.87454652      13.55746490       4.75817936       0.00661771       0.00791740      -0.00120227
Sn      24.41926247      13.55624785       4.75021725      -0.07072787       0.04323020       0.02454320
Sn       1.35580127      17.74602431       4.75957341       0.10366108      -0.00492867      -0.00484628
Sn      12.87431183      17.73604091       4.75207173       0.02830700      -0.00988876       0.01755346
Sn      24.40237443      17.76651263       4.76549547      -0.09725287      -0.11991780      -0.01914361
Sn       1.36620279       1.03666255       9.10765671      -0.02996335       0.03927431       0.01435123
Sn      12.89061099       1.05010585       9.11642970       0.05067492      -0.00550198       0.04253235
Sn      24.41154886       1.04352337       9.12883832      -0.04704109       0.01610008      -0.04865897
Sn       1.37009465       5.21563009       9.11154186      -0.05042389       0.04794473       0.04989699
Sn      12.88181873       5.22582195       9.11600936      -0.01926697      -0.01317826       0.02773272
Sn      24.40381293       5.20657409       9.12889129      -0.04605288       0.05695896      -0.00416609
Sn       1.37026209       9.37946948       9.11885056      -0.05823610      -0.03007505       0.02694368
Sn      12.89258851       9.37890026       9.11038121      -0.01996142       0.03218239       0.01570185
Sn      24.39872055       9.41282389       9.11436493       0.02843285      -0.08806232      -0.01459179
Sn       1.37208542      13.56818108       9.11519551       0.02816330      -0.04630410       0.00665961
Sn      12.88488543      13.56110138       9.11751266      -0.00192255      -0.02347091       0.00850788
Sn      24.38280280      13.56533536       9.13008165       0.02340992       0.02113815      -0.07977278
Sn       1.36770693      17.75057394       9.12689398       0.02752445      -0.03782468      -0.03566121
Sn      12.88267868      17.73338961       9.11622807       0.01539826       0.01416371      -0.00871710
Sn      24.38471041      17.73699808       9.12255070       0.02824597      -0.02058906      -0.04533092
Sn       1.38428689       1.04859551      13.47354605      -0.16987759       0.01070225      -0.02730538
Sn      12.86888041       1.04124678      13.49031223       0.05622211       0.03543713      -0.04834705
Sn      24.39720935       1.04873215      13.48038334       0.08536319      -0.03953600      -0.00236576
Sn       1.37430268       5.20142887      13.49823641      -0.08463912       0.09810194      -0.08729825
Sn      12.87214926       5.22533877      13.47947275       0.05953691      -0.02568164      -0.00739827
Sn      24.39825724       5.21499043      13.48475064       0.02768635       0.06274643      -0.00781008
Sn       1.37170792       9.40207420      13.49627408      -0.01624127      -0.03891246      -0.05306951
Sn      12.88659231       9.40862733      13.48312432       0.00610396      -0.07217862      -0.00488051
Sn      24.41018992       9.39577778      13.47670254      -0.05711758      -0.04035780       0.01133753
Sn       1.36894502      13.57061144      13.48187261      -0.06205879      -0.04803690      -0.04959485
Sn      12.88740266      13.57423336      13.48196086       0.00112178      -0.06992475      -0.02192311
Sn      24.36997664      13.58236243      13.47921868       0.12614456      -0.02948546       0.07186978
Sn       1.35889987      17.72842776      13.47883013      -0.04328838       0.05487234      -0.00231526
Sn      12.87764662      17.73229877      13.47537333       0.08507503      -0.00025270       0.01670621
Sn      24.40471294      17.75997250      13.49040031       0.00481834      -0.06416757      -0.01942087
Sn       1.37835866       1.03953821      17.84434512      -0.04135753       0.01236249       0.01725874
Sn      12.88753892       1.03671673      17.83904117      -0.02692778       0.02342171       0.07059024
Sn      24.40796104       1.05421523      17.84397257       0.01934371      -0.02210817      -0.00617237
Sn       1.35518110       5.21444553      17.82888516       0.03126515       0.01339025       0.02151419
Sn      12.88402612       5.21995548      17.84059137      -0.05101250      -0.04512933       0.01341172
Sn      24.40183263       5.22157046      17.84586709       0.03939578       0.01196986      -0.01677793
Sn       1.35511737       9.38895794      17.84739690       0.06418855       0.04602231      -0.01311893
Sn      12.89906121       9.38877133      17.84880687      -0.11189428       0.02348850      -0.08791378
Sn      24.40819704       9.38952431      17.85478255      -0.05344737       0.02236301      -0.07442328
Sn       1.37915441      13.57938357      17.84788279      -0.08767398      -0.06224977       0.02697611
Sn      12.90687547      13.55942689      17.86453925      -0.08898145       0.01023277      -0.07027994
Sn      24.40709851      13.57898360      17.84009809      -0.07981305      -0.08258961      -0.04125190
Sn       1.37557742      17.75393861      17.83242488      -0.02389326      -0.06297202      -0.01752407
Sn      12.88164083      17.71825634      17.84151514       0.04919614       0.09839435       0.01213384
Sn      24.39125543      17.73749119      17.87253490       0.00134792      -0.00309553      -0.08579324
600
Lattice="34.548424260000004 0.0 0.0 0.0 20.870445700000005 0.0 0.0 0.0 21.8055194" Properties=species:S:1:pos:R:3:forces:R:3 mlfcs_configuration_id=7 mlfcs_sampling_method=gaussian pbc="T T T"
Se       4.13362706       1.02888461       0.11192977      -0.06248227       0.04743681      -0.05657516
Se      15.64057976       1.03990011       0.10815547      -0.00327403       0.00525838      -0.00683059
Se      27.15149169       1.02981297       0.09605910      -0.04127526       0.05204776       0.08687973
Se       4.11817199       5.21836225       0.09928676      -0.03844948       0.01036676       0.02735151
Se      15.62464668       5.21647043       0.11523390       0.03569392       0.00888119      -0.07100839
Se      27.14796701       5.23359553       0.09941418      -0.01251881      -0.03388395       0.06267507
Se       4.11838012       9.38791441       0.11225200      -0.00311888       0.00094216      -0.02909546
Se      15.62477457       9.41073134       0.08946627       0.04220011      -0.08354495       0.06409662
Se      27.16588667       9.39235725       0.11189664      -0.07209638       0.01700047       0.01581978
Se       4.12979427      13.57412312       0.09907212      -0.05339482      -0.01230121       0.04834552
Se      15.63859134      13.58422125       0.09749947       0.00388168      -0.09920149       0.03415730
Se      27.16991615      13.56940353       0.10204011      -0.09955448      -0.02416888       0.04483182
Se       4.10751613      17.73740277       0.08681961       0.00843989       0.00464503       0.07553031
Se      15.62843800      17.73700637       0.09562825      -0.03883108       0.03999595       0.05359171
Se      27.15621032      17.73744798       0.10001444      -0.05311159       0.01383266       0.03999279
Se       4.11319569       1.04683016       4.46820848      -0.02952404       0.00837965      -0.02580977
Se      15.62558069       1.04453562       4.46696951       0.10510805       0.00489208       0.00811866
Se      27.13733722       1.04039404       4.47326965       0.05315054       0.00044083       0.03520119
Se       4.12217041       5.21506858       4.47424400      -0.05429133       0.03277543      -0.03317543
Se      15.62279089       5.20787835       4.46496372       0.07432573       0.03508438       0.01878985
Se      27.16370753       5.21900074       4.46472261      -0.07363627      -0.02510473      -0.00115293
Se       4.13189041       9.38858798       4.48982360      -0.07110180       0.04033170      -0.11853260
Se      15.62747761       9.38134008       4.46581265       0.07823267       0.06815897       0.03899324
Se      27.14624102       9.38338017       4.49349601      -0.00033190       0.06568680      -0.10861666
Se       4.11963529      13.57018900       4.46285748      -0.00388319       0.01731601       0.02170828
Se      15.62681375      13.57580209       4.45071785       0.08978784      -0.06092936       0.08363024
Se      27.13730322      13.56307342       4.48098674       0.03033133       0.01476499      -0.06034128
Se       4.11270386      17.74379716       4.46775356       0.04953661      -0.02040451       0.05641672
Se      15.64555303      17.72378842       4.47483590      -0.07003963       0.07561024       0.00523466
Se      27.14674288      17.74888449       4.45928345      -0.00939231      -0.02676123       0.03198111
Se       4.11669296       1.04225402       8.81855579      -0.01581474      -0.01092598       0.05658404
Se      15.61978632       1.03747497       8.82987946       0.08298135      -0.01429968       0.00401353
Se      27.14116274       1.03997835       8.80972218       0.02450278       0.03874326       0.07237431
Se       4.11274253       5.22760409       8.83563195       0.10990545      -0.02106843      -0.02581064
Se      15.63172123       5.21980475       8.82029755       0.02326176      -0.01522716       0.05025150
Se      27.16497625       5.23804585       8.83022839      -0.04582581      -0.11210825       0.00275698
Se       4.14235588       9.38465554       8.81606936      -0.14521887       0.04011903       0.03649174
Se      15.62549421       9.38926246       8.85170081       0.11675055       0.00230939      -0.10842964
Se      27.14592027       9.38286081       8.81959556       0.01302277       0.05274006       0.01289429
Se       4.12784925      13.57551952       8.82372537      -0.02936396       0.01261262      -0.04094109
Se      15.61383260      13.55426057       8.84579259       0.05424340       0.02702604      -0.06453666
Se      27.15561994      13.56620112       8.84726848      -0.04169074       0.05149773      -0.05360653
Se       4.13603229      17.73927625       8.82840443      -0.03243803       0.01162965       0.00763610
Se      15.62676998      17.73678961       8.81371690      -0.04419095       0.00977341       0.04237757
Se      27.13382800      17.72240906       8.83942352       0.10029308       0.07031253      -0.02062243
Se       4.10083500       1.06277871      13.18238025       0.05322437      -0.09391811       0.03536213
Se      15.64996394       1.03962854      13.17402216      -0.07928622      -0.00060993       0.09820434
Se      27.16156965       1.05729774      13.18062352      -0.07752609      -0.06432911       0.06857926
Se       4.11313250       5.20831027      13.18847876       0.11963513       0.03358474       0.01413185
Se      15.63366874       5.21385439      13.17149512       0.02361904      -0.00349804       0.09348285
Se      27.14292307       5.22440341      13.18759503       0.05142204      -0.04988686       0.03655785
Se       4.11317462       9.38214960      13.18358352       0.00306613       0.08210831       0.01284002
Se      15.64667993       9.38005959      13.19689226      -0.02417698       0.01879951      -0.01875144
Se      27.14920242       9.39390547      13.18236047      -0.07657237       0.01737640       0.06119240
Se       4.11293125      13.56548930      13.18447736       0.04202300       0.00764525       0.04547841
Se      15.63590477      13.57012090      13.21141110       0.02852997      -0.01839086      -0.13012241
Se      27.15151377      13.54642408      13.20131422      -0.00858069       0.10572417      -0.04201393
Se       4.11441032      17.75975490      13.20439327      -0.02387640      -0.07048704      -0.08024782
Se      15.62753777      17.74685467      13.18374448       0.01101754      -0.02842144       0.00472347
Se      27.14875877      17.74639549      13.20081403       0.02961007      -0.01931993      -0.04745462
Se       4.12540108       1.04402898      17.57562215      -0.00174586       0.00477026      -0.09689657
Se      15.62894024       1.02720708      17.53664092       0.02888423       0.12120067       0.05971051
Se      27.16347194       1.04251256      17.55237848      -0.07776649      -0.03885454      -0.02009572
Se       4.11102379       5.21284120      17.54291695       0.01590717       0.02353754       0.03577694
Se      15.63730195       5.21639443      17.55513796      -0.01600307      -0.00912945      -0.04007938
Se      27.15212625       5.21310944      17.53620060      -0.06835374       0.01721011       0.03771617
Se       4.10099103       9.42172388      17.56556964       0.04083890      -0.12459616      -0.05746430
Se      15.64599227       9.38471130      17.55088301      -0.04268021       0.02935033       0.00292404
Se      27.14057824       9.37833654      17.54490017      -0.03290812       0.07704041       0.01362784
Se       4.12971087      13.57395396      17.54108743      -0.10117605      -0.01429938       0.08797442
Se      15.62944228      13.57303774      17.54507820       0.00457101      -0.04050926      -0.00549510
Se      27.14952773      13.56956498      17.55469721      -0.04431870       0.00708441      -0.04048378
Se       4.11899048      17.73309867      17.54527816      -0.04190247       0.06595561       0.03923869
Se      15.62125395      17.72402228      17.54964042       0.06869744       0.10182429       0.03126512
Se      27.15689446      17.72583282      17.55351764      -0.03745428       0.05645470      -0.02371610
Se       7.40718150       3.11195632       4.25305352       0.00498304       0.07784558      -0.01401809
Se      18.93193871       3.13584307       4.23705476      -0.10509051      -0.04000086       0.06627173
Se      30.43820143       3.12284629       4.26267240      -0.03854677       0.04430713      -0.04616849
Se       7.39243437       7.30388247       4.25038390       0.03580128       0.02850324       0.02782486
Se      18.91550819       7.29873999       4.25352395       0.03787619      -0.00058433       0.02696476
Se      30.41986198       7.30931939       4.25751218       0.06467527      -0.02295019      -0.03010153
Se       7.38316987      11.48843110       4.25399645       0.04352042      -0.07880543      -0.02094557
Se      18.91709424      11.48614755       4.25904175       0.02611624      -0.03582866      -0.01688287
Se      30.44327006      11.47556898       4.26610362      -0.05489802       0.01945985      -0.04717874
Se       7.40056444      15.65766741       4.25979562       0.02672193      -0.04903997      -0.03714896
Se      18.92788391      15.65980520       4.25132987      -0.06299626      -0.05620427       0.02970660
Se      30.42520536      15.65209353       4.24815831      -0.02496692      -0.02297512       0.03546388
Se       7.38881327      19.80539969       4.24026670       0.04356359       0.07536024       0.07359155
Se      18.93533068      19.82011521       4.27479393      -0.12306820       0.00990121      -0.08619510
Se      30.43564958      19.82618264       4.24075328      -0.03471535      -0.00199911       0.06570058
Se       7.39938188       3.14924549       8.63243958       0.01291018      -0.09293571      -0.07699406
Se      18.91821900       3.11883697       8.60729156      -0.01633983       0.04515141       0.05090730
Se      30.42309211       3.14310520       8.63318041       0.07124263      -0.06004426      -0.04292913
Se       7.40129412       7.30138199       8.63235031       0.01475932      -0.00597677      -0.05558970
Se      18.90569088       7.30493103       8.62149287       0.06154043      -0.01002016      -0.03529264
Se      30.42299003       7.29805365       8.60972583       0.07908759       0.01179152       0.03117556
Se       7.41350246      11.49764561       8.61801113      -0.03319255      -0.05781210      -0.02049939
Se      18.91279443      11.47250352       8.61688067       0.01032721       0.01490181       0.00469090
Se      30.42611581      11.47753163       8.62099554       0.01321256       0.02996177      -0.03319354
Se       7.39528206      15.65069519       8.61500866       0.02747881      -0.01402609       0.04058712
Se      18.91230098      15.64817660       8.62448518       0.00176750       0.01586692      -0.02933332
Se      30.41391067      15.66833387       8.61821850       0.04591422      -0.06550073      -0.05405203
Se       7.40543537      19.83393099       8.60978262      -0.03475631      -0.03206672       0.02446515
Se      18.90633303      19.81635752       8.61439253       0.06561226       0.02700423       0.00474008
Se      30.43861008      19.82084260       8.62294253      -0.00829947       0.03764889       0.00647709
Se       7.37565598       3.12646798      12.98963846       0.08502992      -0.00373582      -0.05483079
Se      18.91376690       3.12203222      12.97139866      -0.01171054       0.00499470      -0.00145116
Se      30.40133781       3.12020564      12.98853950       0.11974711       0.01963151      -0.06432097
Se       7.39350916       7.29976735      12.95464897       0.03216783      -0.00270686       0.08820730
Se      18.89916823       7.31631329      12.98414003       0.05188773      -0.08994732      -0.03723751
Se      30.41864364       7.29810707      12.97767537       0.06934329       0.03873894       0.01380006
Se       7.38737391      11.45846050      12.97637499       0.05562346       0.09468718       0.02171119
Se      18.92120270      11.48442051      12.98671946      -0.01758579      -0.06093882      -0.02354204
Se      30.41608246      11.47908095      12.97528258       0.08871876      -0.00184679       0.04966598
Se       7.39846298      15.65047326      12.97136261       0.00352849      -0.01345244       0.01855912
Se      18.88529871      15.66420937      12.98126699       0.20777640      -0.02795476      -0.04446846
Se      30.41677513      15.65732239      12.97349404       0.07549002      -0.04936427       0.04123914
Se       7.39514547      19.81899607      12.98333639      -0.01283041       0.04029572      -0.00709728
Se      18.90747838      19.81571187      12.98928454      -0.00887280       0.06586224      -0.11773654
Se      30.42982922      19.82520535      12.98489173       0.03077044       0.01934263      -0.03243537
Se       7.39265932       3.12564212      17.34212812       0.03672133       0.04051782      -0.06799676
Se      18.90006284       3.13253465      17.33151385       0.09973047      -0.00095871       0.06038077
Se      30.44017276       3.13579029      17.34321645      -0.11942729      -0.01214467       0.00176374
Se       7.38326560       7.30337884      17.32729830       0.08554497      -0.01728407       0.00627767
Se      18.91510797       7.28126000      17.32366265       0.02184259       0.07575212       0.08792037
Se      30.44350837       7.30810333      17.33553281      -0.11226907      -0.01051137       0.04093712
Se       7.39024776      11.46765940      17.34107253       0.04347662       0.05981705      -0.01419433
Se      18.91204029      11.49396841      17.33722333       0.06502154      -0.05008433       0.00360487
Se      30.43220524      11.46461690      17.33546398      -0.00974974       0.08991920      -0.03928530
Se       7.40110511      15.64886322      17.33421468       0.04638581       0.01525767       0.03337423
Se      18.91874571      15.66773931      17.34052066       0.00634129      -0.07563815       0.01388886
Se      30.44305989      15.65880710      17.34991450      -0.04663439      -0.03567616      -0.05480644
Se       7.39323799      19.82461094      17.33704323       0.05653920       0.00972568      -0.00403217
Se      18.92093938      19.83460434      17.34032153      -0.01100394      -0.03880451       0.02262459
Se      30.44038510      19.82104690      17.34792474      -0.00658679       0.03783260       0.00248390
Se       7.40949329       3.13709862      21.70151655      -0.05791133      -0.01770327      -0.02987070
Se      18.92260984       3.12138361      21.70215847       0.00877323       0.01009682       0.01118854
Se      30.43462314       3.11702850      21.70492069      -0.06205825       0.06051081      -0.05337316
Se       7.38684700       7.30013361      21.70057246       0.04509089       0.03595229       0.01085104
Se      18.90816925       7.30523834      21.70084042      -0.04522516       0.02104061      -0.01270798
Se      30.42341622       7.31009254      21.69253328       0.03046361      -0.03394922      -0.00487820
Se       7.42221494      11.47740715      21.68846191      -0.22850917       0.02468574       0.04422368
Se      18.90563319      11.48997774      21.69608333      -0.06555323      -0.07088307       0.01665977
Se      30.41798039      11.48703906      21.69601911       0.06434820      -0.04413915       0.01885402
Se       7.40586939      15.66194674      21.70291948      -0.02947273      -0.04685978      -0.04673913
Se      18.93943569      15.63534365      21.69199535      -0.14045300       0.08720107       0.03719443
Se      30.42905853      15.67520281      21.71815487       0.03192998      -0.10689049      -0.05333335
Se       7.41222210      19.81873898      21.69339970      -0.03598956       0.01487583       0.04462271
Se      18.90719101      19.81884595      21.71510190       0.01670630       0.04208169      -0.04008164
Se      30.42918036      19.82556523      21.70791872      -0.02058075       0.00752283      -0.05418463
Se       1.62462920       3.13085011       2.27595561       0.05071936       0.02131683       0.04704567
Se      13.15446175       3.12445945       2.28054452       0.04660284       0.01172664       0.00494224
Se      24.67580314       3.13253579       2.28472612      -0.04074459       0.02060204       0.01679676
Se       1.64497132       7.29572665       2.29374019      -0.02417609       0.06851758       0.01408057
Se      13.15534391       7.29957616       2.27897674      -0.01184284       0.00748402       0.02785269
Se      24.67113335       7.32311919       2.28629119       0.00073313      -0.06274683       0.03397806
Se       1.62982045      11.48769013       2.28220505       0.05874970      -0.01960532       0.02285921
Se      13.16024349      11.47244533       2.29973206       0.02796620       0.04378771      -0.05754414
Se      24.66763972      11.49248052       2.27643172       0.08093198      -0.08207174       0.03463989
Se       1.63833542      15.66659103       2.28860607       0.06324023      -0.08589521       0.00099608
Se      13.18012056      15.64989967       2.28949476      -0.27001178       0.02511379      -0.04009049
Se      24.69259881      15.63745184       2.27054683      -0.08123976       0.06145531       0.07801662
Se       1.63330940      19.83481394       2.27082582       0.06013720      -0.05061033       0.06887031
Se      13.16337639      19.83194728       2.30706823      -0.00848169      -0.03691611      -0.11288128
Se      24.68400217      19.83032072       2.30051566      -0.00753049      -0.00784494      -0.05481765
Se       1.64665352       3.12572295       6.63658215      -0.00349517       0.01587953       0.01270803
Se      13.15171225       3.12992292       6.64977839       0.06289149       0.00962855       0.01030699
Se      24.65219537       3.12812805       6.64831403       0.03774446       0.05615928       0.03367854
Se       1.64673986       7.32068080       6.64988474       0.00610974      -0.07372900      -0.02691058
Se      13.14831027       7.28623200       6.65489832       0.03578638       0.04973955      -0.02590179
Se      24.66485645       7.31308117       6.66200241       0.00174235      -0.03817651      -0.09456630
Se       1.62582373      11.48404086       6.66095443       0.08216597      -0.02076228      -0.06525636
Se      13.16759629      11.45753814       6.63949169      -0.01100598       0.09749355       0.01030890
Se      24.66074552      11.48373666       6.65216148       0.06782107       0.00735533      -0.02920139
Se       1.61428556      15.64958276       6.65603541       0.19155776       0.00991931      -0.02442366
Se      13.15888566      15.65405374       6.64437827      -0.07197770      -0.02255518       0.04412044
Se      24.66295791      15.65242052       6.64854914       0.04558495      -0.01582953       0.00615325
Se       1.64741703      19.83364521       6.64888682      -0.05692683       0.00266869      -0.00597485
Se      13.16835499      19.82293097       6.63358796      -0.02091158      -0.03960376       0.10268923
Se      24.67831786      19.82794401       6.65299752      -0.01373345       0.00305493      -0.01429107
Se       1.62861997       3.14823162      11.01623711       0.01802310      -0.09965372      -0.07046157
Se      13.15452593       3.12096912      11.01990362       0.02813240       0.02958465      -0.02597212
Se      24.66252962       3.15293730      11.00300004       0.11440041      -0.12176035      -0.02126589
Se       1.65846953       7.30256806      11.02493956      -0.18961333       0.02484705      -0.06774683
Se      13.15005722       7.30460116      11.01717958       0.06354782      -0.01971754      -0.06041001
Se      24.68016809       7.31542041      11.00425737      -0.06809349      -0.02176842       0.00774848
Se       1.64211257      11.49098582      11.00207953      -0.02215157      -0.05133231       0.00672167
Se      13.16313131      11.47631033      11.01119083       0.01040228       0.01590953      -0.02311682
Se      24.67439282      11.47061910      11.00652516      -0.02734810       0.03978093      -0.01846687
Se       1.64271380      15.65156384      11.02485945      -0.08013011       0.05821064      -0.06250856
Se      13.16750546      15.65549088      11.00150063      -0.03405943      -0.05293574       0.00660202
Se      24.66530709      15.67232919      10.99903324       0.00728747      -0.06946112       0.03414989
Se       1.64240308      19.83028970      11.00601885       0.01762558      -0.01799839      -0.01298341
Se      13.14738386      19.81883125      11.00366704       0.05048145       0.02250326       0.02660121
Se      24.66645239      19.83995742      11.00904083       0.00000840      -0.02249113       0.01399539
Se       1.63602647       3.13139324      15.37691553       0.04770854      -0.04455362      -0.00446484
Se      13.15395970       3.13934347      15.35752450       0.05756892      -0.04609291       0.08632970
Se      24.68526036       3.13023413      15.36975585      -0.03192937      -0.00829675      -0.01704968
Se       1.63433434       7.29213429      15.35356925       0.04353696       0.06350869       0.10984544
Se      13.14977813       7.31028953      15.36062319       0.02404831      -0.03522207       0.06291753
Se      24.65806284       7.29532214      15.36638764       0.05212367       0.03008951       0.02439234
Se       1.63780947      11.47721301      15.38056203       0.02823288       0.02467082      -0.01164659
Se      13.16989845      11.49855656      15.35398690      -0.03418732      -0.08858384       0.06903762
Se      24.66498848      11.48548679      15.36569566       0.04614659      -0.05721729       0.04163281
Se       1.64987235      15.65466221      15.38602801      -0.16729813       0.00493800      -0.04284487
Se      13.16783306      15.66320124      15.36611725      -0.07719270      -0.04677869       0.01969002
Se      24.67257271      15.64953854      15.35517705      -0.01034273       0.02682003       0.07896949
Se       1.65598217      19.83413409      15.36678570      -0.07757751      -0.01578895       0.03857688
Se      13.17045183      19.82037654      15.35185462      -0.04236580       0.00872497       0.07298390
Se      24.68362102      19.81389461      15.36827821      -0.01944382       0.07228868      -0.04714656
Se       1.64332571       3.13417831      19.73982386       0.00646448      -0.00469416      -0.00642051
Se      13.16321442       3.13582258      19.72343233       0.04606181       0.00629092       0.03686257
Se      24.67648976       3.11526816      19.74696123       0.00580285       0.08455507      -0.07685679
Se       1.62723883       7.30094840      19.71815111       0.03914471      -0.01095660       0.06235849
Se      13.15010424       7.30454708      19.72605227       0.08629533      -0.06269951       0.05836665
Se      24.68498978       7.30668181      19.72671075      -0.09938051       0.02532042       0.01280647
Se       1.63992866      11.49069894      19.74042856       0.03561640       0.00272305      -0.01665510
Se      13.14601819      11.47169542      19.73608775       0.07570566       0.05046344      -0.03805894
Se      24.67708099      11.46799812      19.73883112      -0.06599857       0.01945907      -0.05909682
Se       1.63235574      15.66562934      19.73663434       0.06606478      -0.08581465      -0.04881885
Se      13.14608666      15.64730031      19.72587524       0.09559011       0.03085557       0.02918677
Se      24.67514609      15.65055131      19.71988496       0.03759706      -0.00466114       0.03693478
Se       1.62732189      19.83217045      19.73420222       0.08355952      -0.03739527      -0.01166267
Se      13.15846128      19.82938753      19.72515066      -0.03664672      -0.01875333      -0.00335829
Se      24.67538725      19.85206527      19.74308552      -0.06863199      -0.11470846      -0.06984083
Se       9.87163565       1.03804537       2.04660300       0.02579579       0.02947012       0.13240736
Se      21.40134810       1.05114514       2.06976911      -0.04667221      -0.02573279       0.03044047
Se      32.89248550       1.03172641       2.07965137       0.03857976       0.01836532      -0.01612296
Se       9.87362633       5.22428415       2.07607182       0.02587610       0.00831047      -0.00218483
Se      21.40032874       5.22106398       2.08349534      -0.04977628       0.00965121      -0.04974098
Se      32.88590574       5.20502477       2.07156387       0.02289012       0.05055159       0.02516197
Se       9.88531542       9.41026266       2.07356503      -0.03798606      -0.13282416      -0.03656883
Se      21.38454535       9.37190768       2.08384303       0.06646129       0.07993199      -0.03395708
Se      32.90130067       9.42104071       2.06781335       0.00984882      -0.15452308       0.00685477
Se       9.89557249      13.57303018       2.06492475      -0.03728391      -0.04370328       0.01835597
Se      21.39298259      13.57326031       2.07295487       0.01409688      -0.02757849       0.02142199
Se      32.91518240      13.57370608       2.08117077       0.04190309      -0.04708943      -0.01263084
Se       9.87435500      17.72788624       2.07443954       0.04131159       0.04119821      -0.03403786
Se      21.39242180      17.72087514       2.07689974       0.03267604       0.10603526      -0.00384613
Se      32.90583456      17.72666938       2.07187733      -0.04647723       0.09174567      -0.02393495
Se       9.87140127       1.06258003       6.43851245       0.00496485      -0.08865722      -0.00490423
Se      21.40102161       1.04210093       6.41757210      -0.05835857       0.00188301       0.07136483
Se      32.91352599       1.03669722       6.43295527       0.03892050       0.03767888       0.03518634
Se       9.86399002       5.21809590       6.44696305       0.11303561       0.00194639      -0.05906110
Se      21.39998854       5.23323012       6.45359086      -0.02868103      -0.06105334      -0.06146373
Se      32.88634383       5.20543202       6.41822935       0.10560160       0.07909901       0.04603022
Se       9.88083904       9.38452655       6.43141947      -0.03618850       0.03517041       0.01766147
Se      21.38849518       9.39528307       6.42145806       0.01898847      -0.02284461       0.05181483
Se      32.89421394       9.39147033       6.44829873       0.13498880      -0.01246057      -0.04846878
Se       9.87426576      13.55762991       6.41482918      -0.03879923       0.03519685       0.11248984
Se      21.40018791      13.55818719       6.42483690      -0.06031697       0.05543562       0.07032855
Se      32.88964932      13.55115550       6.42669913       0.04550869       0.07191223       0.08669681
Se       9.87213125      17.72754823       6.43816835       0.06162587       0.02062975      -0.01655604
Se      21.38819668      17.76185557       6.41926684      -0.03835994      -0.12246537       0.03526291
Se      32.90841737      17.74137570       6.42600570       0.02719362      -0.01256202       0.03773677
Se       9.87547226       1.05097503      10.79838006      -0.02427501      -0.04609333      -0.02683691
Se      21.40450578       1.02150221      10.78899282      -0.02613222       0.10633318       0.00214294
Se      32.92155314       1.05239935      10.80282027      -0.09674317      -0.05572822      -0.06405314
Se       9.88685189       5.19820265      10.80537126      -0.00256749       0.05166580      -0.01058235
Se      21.40130486       5.21078122      10.82370752      -0.05880530       0.03208267      -0.11046744
Se      32.90876606       5.19544054      10.80122787      -0.01501054       0.11848891      -0.01245293
Se       9.86732113       9.40310732      10.80289459       0.09438084      -0.02418823      -0.03235592
Se      21.38468193       9.40648188      10.80680966      -0.06347580      -0.06644664      -0.02115261
Se      32.89852338       9.38993691      10.80258432       0.02083880       0.02654241      -0.01320094
Se       9.87087710      13.56220251      10.79778240      -0.00254238      -0.00763533      -0.04805642
Se      21.38000317      13.54321885      10.79980650       0.03171616       0.13684485      -0.02903308
Se      32.88691358      13.55561612      10.77969933       0.13553429       0.03976050       0.05091100
Se       9.85803529      17.74389920      10.79519207       0.02634302      -0.06160109      -0.06119115
Se      21.38807715      17.72647663      10.79085666       0.01312883       0.04501307       0.01420513
Se      32.91056713      17.73911477      10.80564189      -0.00542629       0.00356656      -0.01909178
Se       9.88417066       1.04075689      15.13999654       0.02553301       0.01821380       0.07598374
Se      21.38309471       1.04230219      15.15075416       0.02040918       0.02621214       0.06158463
Se      32.89625633       1.04397661      15.18282206       0.03829193      -0.01147704      -0.10467865
Se       9.86963785       5.21734017      15.14539867       0.00722647      -0.02742018       0.02420026
Se      21.40309517       5.22611566      15.16657637      -0.01835854      -0.07605467      -0.07908939
Se      32.92040053       5.21309481      15.15549485      -0.03837256       0.01020055      -0.01141184
Se       9.89161852       9.39778465      15.13632681      -0.03890492      -0.05990067       0.04307285
Se      21.39520937       9.38564038      15.16750075      -0.05278909       0.03601244      -0.02463483
Se      32.91088448       9.37405194      15.16120733      -0.06202646       0.12142582      -0.03119346
Se       9.87662601      13.56918113      15.16427432       0.05103001      -0.01053414      -0.05026376
Se      21.40562081      13.56968540      15.15874801      -0.04870771       0.00382526      -0.01622044
Se      32.91828225      13.58797391      15.16766974      -0.01439584      -0.10139419      -0.05497652
Se       9.87658180      17.74396095      15.16107947       0.02148420      -0.03816107       0.00799243
Se      21.39084634      17.76128735      15.15102850       0.08654306      -0.11453169       0.01960930
Se      32.91835163      17.73837708      15.14371484      -0.06003299       0.01395903       0.02610933
Se       9.87263656       1.03781133      19.52539868       0.05950662       0.01150198      -0.02236905
Se      21.39157416       1.03305882      19.53433299       0.00092643       0.06561392      -0.05422402
Se      32.91770392       1.05913964      19.52199256      -0.05233412      -0.05901790      -0.03446019
Se       9.87416240       5.22440383      19.51384816      -0.02956378      -0.00375130      -0.00263005
Se      21.39196175       5.21561145      19.50501257      -0.05595735      -0.01226097       0.05314621
Se      32.90807713       5.21295856      19.51719739      -0.07111967       0.02012877       0.00669264
Se       9.87815758       9.40418270      19.51113521      -0.01642159      -0.08282917      -0.00124406
Se      21.38729557       9.38380654      19.51132110      -0.05210026       0.00489142      -0.00420945
Se      32.90085689       9.38949286      19.52548163       0.00969502       0.06131057      -0.02604909
Se       9.87772419      13.55497794      19.53256451      -0.02380905       0.05980188      -0.04700375
Se      21.40010528      13.55653465      19.53186402      -0.07948659       0.04922287      -0.08021205
Se      32.91007196      13.56398195      19.52320371       0.03129196       0.02788369      -0.05826175
Se       9.87426203      17.74508643      19.52149606       0.01116223      -0.01287898      -0.02179611
Se      21.38728689      17.71937738      19.52489473      -0.01636924       0.11682259      -0.01129948
Se      32.90306602      17.74741511      19.52443966       0.05917121      -0.02779867      -0.00577008
Sn       7.12104806       1.05350897       1.78461998       0.01666701      -0.05063532      -0.03114034
Sn      18.64230255       1.04189798       1.79940712       0.03779834      -0.00208594      -0.04095262
Sn      30.14967488       1.04005234       1.77019821      -0.01221098      -0.00802210       0.07493678
Sn       7.13179201       5.21154674       1.77787121      -0.03874177       0.02825976       0.02738281
Sn      18.63549676       5.21799544       1.77006397       0.03645062      -0.00352747       0.03983265
Sn      30.13437509       5.22194527       1.76143599       0.00848343      -0.01312822       0.04850361
Sn       7.13306608       9.40704264       1.78092932      -0.02317799      -0.05663113       0.00179585
Sn      18.65366105       9.39121480       1.79856397      -0.06686910       0.00399956      -0.00761850
Sn      30.15224536       9.36780855       1.78177244       0.01381851       0.08752133      -0.01424119
Sn       7.14160433      13.57089619       1.77741833       0.01552302      -0.00478479       0.02000308
Sn      18.64395513      13.57525775       1.78171540      -0.00387575      -0.00144067       0.02681991
Sn      30.18307144      13.56037233       1.79259667      -0.07078090       0.03410432      -0.03009270
Sn       7.13214407      17.73263737       1.77832716      -0.06339032       0.06307758       0.01941384
Sn      18.65084711      17.74108352       1.78595228      -0.05073371      -0.06906522      -0.00080832
Sn      30.14044787      17.74619563       1.78544453       0.04313722      -0.00645245       0.02410885
Sn       7.12388560       1.04688800       6.13958327      -0.00397108      -0.06519675      -0.01331713
Sn      18.63474710       1.04086023       6.13903341       0.06684163       0.01799448       0.01569737
Sn      30.17861284       1.05239779       6.13399075      -0.06890110      -0.03966029       0.04547356
Sn       7.14488766       5.21303966       6.14397000      -0.12894018      -0.00008037      -0.02107522
Sn      18.64964029       5.19766834       6.14130518       0.00071680       0.06758883      -0.01196579
Sn      30.15107420       5.21941903       6.14737594      -0.06129374      -0.01813118       0.00016372
Sn       7.12375211       9.39022089       6.15432676       0.03855819      -0.00477594      -0.04378261
Sn      18.64368098       9.39187162       6.14515415      -0.01231085      -0.00918923      -0.02490125
Sn      30.17516643       9.39318411       6.13853096      -0.14864467      -0.01845020       0.05302201
Sn       7.10543471      13.55120713       6.13900518       0.10906777       0.05677329       0.02085976
Sn      18.63958235      13.55999029       6.14718688       0.05763442       0.02912522      -0.00477148
Sn      30.15112246      13.55640161       6.14980188       0.00197836       0.02173517      -0.02273673
Sn       7.13821865      17.72856397       6.14611260      -0.05079503       0.03764811      -0.00176148
Sn      18.62161608      17.72489026       6.13778778       0.04199745       0.01171696       0.03642838
Sn      30.16815665      17.73184859       6.13551444      -0.05478894       0.04487237       0.00092969
Sn       7.12488558       1.04364992      10.49692801       0.00455508       0.00478926       0.01890345
Sn      18.66052834       1.04062545      10.50591517      -0.03542589      -0.02576091      -0.03660846
Sn      30.15278975       1.04767880      10.51712890       0.06698090      -0.02474228      -0.06013145
Sn       7.14116134       5.20974557      10.51578727      -0.04191743       0.04902340       0.05469159
Sn      18.64616293       5.22711359      10.50386053       0.02129203      -0.06120859      -0.00436253
Sn      30.15493713       5.22672537      10.51432625       0.01745421       0.00652406      -0.01914516
Sn       7.14018191       9.39344284      10.50371018      -0.10655694       0.00921417       0.02867276
Sn      18.61606759       9.37534476      10.50083681       0.10660093       0.05794219       0.00556193
Sn      30.14579695       9.39959867      10.49167911      -0.01391113      -0.05168468       0.03358792
Sn       7.11951166      13.56092624      10.51682675      -0.01572614       0.03519587      -0.02532004
Sn      18.63458374      13.57007063      10.50673638      -0.00544865      -0.04721534       0.00874563
Sn      30.16584043      13.57404866      10.50444492      -0.12467270      -0.01884706       0.02836553
Sn       7.10756176      17.73731824      10.50457977      -0.00157567       0.01072095      -0.01676763
Sn      18.64352621      17.73226009      10.51618833      -0.03383786       0.01743759      -0.03666242
Sn      30.15694374      17.73043067      10.50019704       0.00990171       0.06767257       0.06171228
Sn       7.14381013       1.04992286      14.87636777      -0.06024743      -0.06331085      -0.01298484
Sn      18.63025025       1.03639079      14.85906898       0.03300073       0.02276205       0.04584281
Sn      30.15865148       1.04153907      14.86098826      -0.05849439      -0.03380866       0.05478476
Sn       7.12088401       5.20942787      14.86408481      -0.01216804       0.06283630      -0.03556988
Sn      18.65179828       5.20223683      14.86934800      -0.01946842       0.03802324       0.02131442
Sn      30.17060847       5.21553635      14.86059444      -0.02207898       0.02227586       0.03660751
Sn       7.13376702       9.38161515      14.86565629      -0.00272301      -0.01071181      -0.02197366
Sn      18.63026768       9.37275636      14.86436336       0.05507664       0.07272852       0.04318427
Sn      30.14417359       9.39134066      14.87703350       0.05492518      -0.02033389      -0.06771089
Sn       7.14306726      13.56648180      14.87607536      -0.08642598      -0.00495323      -0.02897197
Sn      18.64465575      13.56171537      14.84663544      -0.00397594       0.04074164       0.06684630
Sn      30.17307247      13.55505548      14.87971091      -0.05416939       0.05476354      -0.07678414
Sn       7.12989278      17.72987552      14.86900319      -0.01661936       0.00487503       0.00115688
Sn      18.66199523      17.75499217      14.86075607      -0.12580689      -0.07821115       0.09020706
Sn      30.14968774      17.74063773      14.86422807       0.07404415      -0.01686133       0.00216187
Sn       7.13652208       1.05067498      19.21006467      -0.06875346      -0.06278413       0.07365554
Sn      18.64525288       1.04148818      19.22735816      -0.01523714       0.01565902      -0.01531111
Sn      30.15929697       1.05526638      19.23676501       0.01907671      -0.05514354      -0.04163530
Sn       7.11702728       5.21678211      19.22250187       0.03476298       0.02686634       0.02339394
Sn      18.62384766       5.21627452      19.24543463       0.08826179      -0.01361840      -0.09705938
Sn      30.13968711       5.21712761      19.22642570       0.05748811       0.03529491      -0.03314200
Sn       7.12740206       9.38183012      19.21273598      -0.00487266       0.00020268       0.02606180
Sn      18.62688015       9.40476670      19.21716022       0.06919253      -0.05494969      -0.08156078
Sn      30.15181192       9.41250369      19.21964453      -0.00935732      -0.09165567       0.05091908
Sn       7.12794870      13.57618462      19.23714428       0.02463350      -0.03210373      -0.06180006
Sn      18.62735036      13.55841298      19.23001072       0.07932398       0.05776905      -0.03711796
Sn      30.17609772      13.55793140      19.22205095      -0.09586074       0.02052152       0.04897790
Sn       7.12872045      17.74583223      19.23378962       0.00299698      -0.01500688      -0.02919867
Sn      18.63220256      17.73431516      19.22914209       0.04468020       0.02632469      -0.01833322
Sn      30.16943066      17.73725080      19.22676406      -0.07263516       0.02561909       0.03653860
Sn       4.38100023       3.14895592       2.58110279      -0.00480957      -0.05784140      -0.00567638
Sn      15.91817848       3.13062263       2.58041283      -0.07630199      -0.00064500      -0.02498713
Sn      27.40853927       3.10881604       2.59207921       0.08630731       0.04829277      -0.03339052
Sn       4.39204010       7.30647708       2.56706962       0.02958257      -0.00619118       0.06537748
Sn      15.89837029       7.31503582       2.59696159       0.04167434      -0.06547015      -0.07025272
Sn      27.41732961       7.31112763       2.58146041       0.01811435       0.01170413       0.02812024
Sn       4.39005422      11.49702153       2.57502814      -0.02058289      -0.07249410       0.01979556
Sn      15.91980806      11.48231617       2.57939126      -0.04253884      -0.01706166      -0.01892485
Sn      27.43726253      11.48140328       2.57859588      -0.07476805      -0.01557156       0.06245957
Sn       4.40505394      15.66508370       2.59157979      -0.05267878      -0.02273262      -0.07035276
Sn      15.86852289      15.65699284       2.58168133       0.29373932       0.02023406      -0.06506136
Sn      27.42319372      15.65868887       2.58216573       0.06533405      -0.03606445       0.00893701
Sn       4.39803759      19.82400060       2.59454196      -0.04652963       0.06894260      -0.06734111
Sn      15.91519038      19.83210548       2.58449721      -0.03221130      -0.04467101       0.01318852
Sn      27.43511517      19.83689709       2.57843244      -0.03220871      -0.02034841      -0.00118314
Sn       4.40116262       3.13206418       6.95983330      -0.01805077       0.01594358      -0.06526273
Sn      15.91837821       3.12406756       6.96397114      -0.06349008       0.00626204      -0.05082355
Sn      27.40252196       3.13669720       6.93370156       0.05410861       0.01040944       0.02413392
Sn       4.41008132       7.30694086       6.93272608      -0.05054781      -0.00594509      -0.00331233
Sn      15.90473599       7.29727348       6.93760627      -0.01862848       0.02388629       0.01100951
Sn      27.42025588       7.29690124       6.94336467       0.00580435       0.06116406      -0.04025235
Sn       4.39517176      11.46853887       6.92408135      -0.10450549       0.02981834       0.05801373
Sn      15.91051050      11.48382114       6.94796620       0.00804239      -0.02335319       0.02923493
Sn      27.42905410      11.49422910       6.95063472      -0.06324824      -0.06164228      -0.00926043
Sn       4.41805780      15.68359755       6.92308301      -0.17247602      -0.10400519       0.06636350
Sn      15.88542955      15.65251716       6.94570636       0.10228973      -0.02633095      -0.00178967
Sn      27.42278350      15.65962688       6.93796162      -0.04659158      -0.03889882       0.00101647
Sn       4.38432001      19.82125131       6.93866235       0.07260171       0.04344924      -0.03084868
Sn      15.91583606      19.82181281       6.93777435       0.00823210      -0.00239938       0.01341648
Sn      27.42924452      19.82469225       6.95183114       0.03581397      -0.02990426      -0.02366566
Sn       4.38206445       3.11896002      11.30481421      -0.00831620       0.05208305      -0.03935897
Sn      15.91144382       3.12167406      11.31520387      -0.00800870       0.01109316      -0.08160799
Sn      27.44279172       3.12404511      11.31664092      -0.11451321       0.07032978      -0.06329757
Sn       4.36743819       7.31517392      11.29319029       0.18011027      -0.01800087       0.00569391
Sn      15.91716166       7.29480004      11.30108304      -0.09921708       0.01950563      -0.01190079
Sn      27.41544120       7.30227399      11.32006716       0.05980680       0.03925968      -0.06708923
Sn       4.39018014      11.49960495      11.29790979      -0.00510591      -0.08672832      -0.00879397
Sn      15.92231858      11.46224501      11.29890283      -0.06629069       0.07087086       0.06509394
Sn      27.41818125      11.49387899      11.30362040       0.01756802      -0.05689788      -0.01722551
Sn       4.37037868      15.63948978      11.29164129       0.06887572       0.07055283       0.04956455
Sn      15.91674144      15.66064115      11.29876392      -0.01216484      -0.02447005       0.05842848
Sn      27.41805726      15.65975496      11.29047269      -0.01436198      -0.04522399       0.06561055
Sn       4.39583620      19.83040540      11.29902202      -0.02475372       0.00856614       0.05179848
Sn      15.91137771      19.82770116      11.30674211      -0.03529194      -0.03520785      -0.04798624
Sn      27.41020133      19.83282524      11.31203393       0.04962256      -0.00926218      -0.04406830
Sn       4.39446903       3.13633581      15.66177260      -0.04757656      -0.05906194       0.00783479
Sn      15.91631426       3.13097613      15.65139238      -0.03381063       0.00881646       0.04682002
Sn      27.43174452       3.11398219      15.66569959       0.01128960       0.03957808       0.01806957
Sn       4.38741729       7.29993154      15.66459168      -0.02381277       0.07590243       0.01494024
Sn      15.90030805       7.30953486      15.66343976       0.02574475      -0.03841610       0.00617410
Sn      27.41736941       7.31779459      15.66491962      -0.00422948      -0.06751946      -0.02358822
Sn       4.39756752      11.49266782      15.67687358      -0.00498067      -0.04156006      -0.04603020
Sn      15.91319879      11.47547535      15.64857476       0.00859350       0.04367902       0.04062523
Sn      27.42560926      11.48944778      15.66641494      -0.04291804      -0.01906242       0.00902326
Sn       4.35681367      15.66129170      15.67218679       0.23227905      -0.00919224      -0.08096350
Sn      15.90438871      15.66247469      15.66915145       0.09008042      -0.04110051      -0.06113636
Sn      27.41668729      15.66530409      15.65019703       0.03465466      -0.07033026       0.03814275
Sn       4.39068707      19.82511019      15.65461741       0.06530905       0.02157438       0.02985844
Sn      15.91043887      19.83978390      15.67534922       0.03684404      -0.10345231      -0.06063092
Sn      27.43077900      19.80972099      15.64951227      -0.02123739       0.04794248       0.08906920
Sn       4.39292121       3.12998131      20.01899488      -0.00479617      -0.05450867       0.04147307
Sn      15.92645417       3.13138226      20.02939980      -0.05090829       0.01695324       0.02823539
Sn      27.43342129       3.13087324      20.04988630      -0.04929955       0.00913819      -0.07910042
Sn       4.38185579       7.29835208      20.01454742      -0.00966511       0.03724161       0.01754442
Sn      15.92302752       7.31243365      20.01853416      -0.09812522      -0.03083315       0.04146168
Sn      27.41490359       7.31826170      20.02759255       0.10056065      -0.02027721      -0.05449180
Sn       4.40536369      11.47790044      20.02909103      -0.05576761      -0.00350303      -0.00984192
Sn      15.91040321      11.47226082      20.02253423      -0.08350816       0.07351232      -0.02820653
Sn      27.41169932      11.48344300      20.03158816       0.06761439       0.00877113      -0.03501016
Sn       4.40116113      15.65925652      20.02269358      -0.06519054      -0.00544675      -0.01525933
Sn      15.92292064      15.66151416      20.03786114      -0.07803761      -0.01237487      -0.07528920
Sn      27.43805522      15.65133508      20.02785447      -0.02494638      -0.00442635      -0.02953514
Sn       4.39900517      19.81518880      20.01270594      -0.07681817       0.05405542       0.02687778
Sn      15.89440782      19.82559921      20.02064251       0.05359355      -0.00119973      -0.00279141
Sn      27.40918565      19.82817380      20.02301949       0.06831952      -0.02743821      -0.05055336
Sn      10.16115263       3.15045345       3.96768801      -0.00811402      -0.10692837      -0.05829557
Sn      21.65850534       3.13679090       3.96321653       0.09581445      -0.01662829      -0.00321032
Sn      33.17921181       3.12170764       3.95848130      -0.00053040       0.00589911      -0.01743993
Sn      10.14755231       7.31245376       3.96823376      -0.01807992      -0.00368055      -0.00907253
Sn      21.68372741       7.31115618       3.96736645      -0.07922725      -0.04403116       0.01891906
Sn      33.17855076       7.29403817       3.95742457      -0.05172603       0.03200824      -0.05468472
Sn      10.14233184      11.45289287       3.95303718       0.01060675       0.14784022       0.08271965
Sn      21.68149374      11.48218794       3.95935826      -0.06579398       0.01408271      -0.01199096
Sn      33.18559786      11.45896789       3.96594448       0.02868109       0.09009624       0.01484052
Sn      10.16210515      15.65137992       3.94540361      -0.03663361      -0.05639684       0.08296498
Sn      21.66133224      15.66538370       3.96570980       0.05735150      -0.06931477       0.01619416
Sn      33.16742996      15.67626737       3.95058542       0.06171792      -0.06747282       0.06565685
Sn      10.14690098      19.81630636       3.95276348      -0.03016279       0.07873000      -0.01658414
Sn      21.66095013      19.83304172       3.97602882       0.09980518      -0.00593896      -0.04722262
Sn      33.17775138      19.81657878       3.96790990       0.03359168      -0.00046021      -0.03626201
Sn      10.15440986       3.13272742       8.32698478      -0.00952725      -0.02362733       0.02810994
Sn      21.66434598       3.13130516       8.32241087       0.02040200      -0.02067331      -0.00617912
Sn      33.19231550       3.15260825       8.32602391      -0.08053801      -0.04605739      -0.00980200
Sn      10.14926450       7.30697141       8.31764816       0.00915935       0.01439325       0.05026844
Sn      21.67312143       7.30882456       8.32002268      -0.03493383       0.04984468       0.03543896
Sn      33.19063373       7.30460269       8.31452682      -0.07690419      -0.05751472       0.01356171
Sn      10.15284627      11.48087186       8.33383156       0.01557472       0.01863264      -0.08382530
Sn      21.67378711      11.47740967       8.31950651      -0.04396867       0.00449227      -0.01126089
Sn      33.18163050      11.48213502       8.32906493      -0.01290457       0.02332439      -0.01707704
Sn      10.15234435      15.65168346       8.33419555      -0.06396353      -0.07233800      -0.08373615
Sn      21.65872863      15.67738511       8.33185809       0.01305864      -0.05779632      -0.07853457
Sn      33.17033821      15.65444337       8.33195422      -0.00437233      -0.02819240      -0.06258300
Sn      10.14583653      19.81172877       8.31383674       0.03190039       0.07522822       0.00215688
Sn      21.67089257      19.80913405       8.30973394      -0.06522302       0.07611600       0.01279566
Sn      33.18698141      19.82445472       8.31726958      -0.03272845      -0.00539163       0.01399703
Sn      10.14438290       3.11561552      12.69017580      -0.03122534       0.02438171       0.00444062
Sn      21.65740621       3.12496613      12.68879911       0.04365754      -0.04081437       0.00612260
Sn      33.17904679       3.12327712      12.66543688      -0.01781448       0.03359828       0.09186049
Sn      10.15300448       7.30520273      12.68015739      -0.02961613      -0.01677979      -0.01333887
Sn      21.65509765       7.30454042      12.69013598       0.00710085       0.04640044      -0.00536832
Sn      33.18259065       7.32079345      12.69237901      -0.05358420      -0.07540225      -0.00926842
Sn      10.14825739      11.48588472      12.68581789      -0.02750577      -0.03483150       0.02425984
Sn      21.66592357      11.49146557      12.67635068       0.02268317      -0.05297963       0.05229169
Sn      33.18184616      11.49039904      12.68842117      -0.06133230      -0.05705731      -0.02201194
Sn      10.14563969      15.63552948      12.66262779       0.02374580       0.06645573       0.07125051
Sn      21.68623346      15.65567619      12.67949053      -0.15734380      -0.04203821      -0.00566146
Sn      33.18510763      15.64311433      12.68201925      -0.08131755       0.02984613      -0.01033613
Sn      10.13992082      19.81254748      12.66428141       0.02539038       0.04495230       0.06245367
Sn      21.64949507      19.83689309      12.67546244       0.06762930      -0.05699767       0.05562997
Sn      33.18696199      19.83624669      12.68549706      -0.03334692      -0.03141559      -0.00337066
Sn      10.14634455       3.13165388      17.04226894       0.00111471      -0.00785441      -0.01157937
Sn      21.67751074       3.14908899      17.06093326      -0.11570811      -0.07442348      -0.05429382
Sn      33.16009743       3.12595339      17.04647673       0.13811653       0.04197108       0.03770097
Sn      10.15396080       7.28713965      17.02900071      -0.05946102       0.05908183       0.01719570
Sn      21.67853954       7.29882160      17.03156108      -0.07205571       0.04127651       0.06451273
Sn      33.17057666       7.30831754      17.03820967       0.09952144      -0.04164039       0.03766433
Sn      10.15174648      11.46871466      17.02899314      -0.01452027       0.00177374       0.06212268
Sn      21.67971545      11.48248383      17.04309763      -0.08062504      -0.01046255       0.00159623
Sn      33.17639945      11.49315094      17.05235044       0.05091791      -0.08257866      -0.03068298
Sn      10.16079835      15.64675415      17.04694181      -0.05816755       0.04811275       0.01440247
Sn      21.66949363      15.64709038      17.04547982      -0.04078018       0.05232164       0.00073032
Sn      33.17577696      15.65658167      17.03322120       0.05533736       0.07990248       0.06125276
Sn      10.15504992      19.82978735      17.04440206      -0.02527578      -0.01613122      -0.00779439
Sn      21.66996682      19.82303081      17.03973383       0.00174537       0.04141412       0.00549482
Sn      33.18705033      19.83255036      17.04136244       0.00177766      -0.05154713       0.03130132
Sn      10.14339970       3.12849392      21.40201897       0.05309865       0.01338830       0.00905600
Sn      21.68072284       3.13348841      21.40768502      -0.02853803       0.01627900      -0.01184449
Sn      33.17228581       3.13771355      21.40142297       0.09140808       0.00034021       0.04667878
Sn      10.14280275       7.31213894      21.41141225      -0.02489182      -0.00918463      -0.05739502
Sn      21.64043717       7.30283509      21.40879422       0.08264529      -0.01019772      -0.01285558
Sn      33.17821710       7.30601643      21.38944214       0.00935726      -0.01576866       0.03844499
Sn      10.12102002      11.46874725      21.41036149       0.23743960       0.02141318      -0.00210813
Sn      21.63322208      11.47006647      21.38831141       0.12737588       0.00455177       0.06657849
Sn      33.17918682      11.49808093      21.40536726      -0.04743983      -0.08357807       0.03755120
Sn      10.14825520      15.66098338      21.40775209       0.03922275      -0.04304973      -0.03154970
Sn      21.66332173      15.66185753      21.41225789       0.11500280      -0.05152767       0.00737192
Sn      33.18449932      15.65120327      21.40407838      -0.03199760       0.04080557       0.02796627
Sn      10.15850193      19.82331559      21.41985155      -0.02054561       0.02887992      -0.01655311
Sn      21.65500018      19.84101805      21.41225942       0.01411120      -0.09341010       0.01096976
Sn      33.17192771      19.83177000      21.40103599       0.05278911       0.01111817       0.02784068
Sn       1.36678827       1.03841281       0.39767909       0.05000587      -0.00029880      -0.04906364
Sn      12.89200972       1.04846420       0.38775456      -0.00613930      -0.03402574       0.05443410
Sn      24.38805587       1.04598684       0.40244009       0.04931148      -0.03449720      -0.00702884
Sn       1.35970954       5.23328138       0.40714317       0.01062679      -0.04612879      -0.05403813
Sn      12.87633965       5.21014567       0.39673008       0.00003812      -0.01395663       0.01102342
Sn      24.39541829       5.22992980       0.40885345      -0.00074276      -0.02018566      -0.03115937
Sn       1.36680469       9.39823642       0.40723797      -0.00033041      -0.02039826      -0.02786922
Sn      12.88317802       9.39548355       0.40495009      -0.03065438       0.02846763      -0.02409757
Sn      24.40361289       9.38366933       0.39223112       0.00108288       0.07468900      -0.01928224
Sn       1.36356805      13.55847986       0.38427721       0.06647313       0.06518871       0.02880319
Sn      12.88935493      13.56901059       0.38561455      -0.00419675      -0.06500043       0.01955573
Sn      24.39632767      13.56370365       0.40082766       0.04065721      -0.00713287      -0.08185437
Sn       1.35563477      17.72609570       0.40420546       0.00968297       0.05322437      -0.03086932
Sn      12.86725579      17.73730901       0.39574744       0.07503571       0.05248776       0.04548540
Sn      24.39750399      17.74216282       0.41499392       0.03112138       0.01975786      -0.03403408
Sn       1.35045907       1.05204490       4.73499052       0.07573948      -0.01652652       0.04712462
Sn      12.89653252       1.02285039       4.78447604      -0.11193631       0.07239991      -0.10130895
Sn      24.39483915       1.05618292       4.77095366      -0.05106342      -0.06571313      -0.05546737
Sn       1.36208910       5.21377073       4.75174051       0.05966672       0.01879262       0.05361648
Sn      12.89046911       5.21313354       4.75192226      -0.05359150      -0.02031022       0.00984891
Sn      24.40410959       5.20839646       4.75682227       0.01837703       0.06320829       0.02814551
Sn       1.36752505       9.38503307       4.75519661       0.05974397       0.04985805       0.05145595
Sn      12.89794524       9.38941501       4.75651583      -0.08968954      -0.03617615      -0.00808199
Sn      24.39698558       9.39600192       4.74977346       0.03643080       0.00521650       0.06664492
Sn       1.37072615      13.56810471       4.74222554      -0.03914418      -0.00250398       0.06797693
Sn      12.90053797      13.58015464       4.75210647      -0.11727359      -0.09332514       0.00512461
Sn      24.38751257      13.56782702       4.74585346       0.01006785      -0.00014621       0.05232609
Sn       1.38009682      17.73495111       4.77633017      -0.11135390      -0.00767164      -0.04257287
Sn      12.87435138      17.73851362       4.77278422       0.05999562       0.02332545      -0.06879266
Sn      24.39550444      17.74235656       4.77103868       0.00763195      -0.00136964      -0.02881740
Sn       1.36089352       1.03066169       9.10662887       0.02117558       0.07321897       0.06174529
Sn      12.88842974       1.04716687       9.13183261      -0.08132814      -0.01583987      -0.01303088
Sn      24.39599639       1.02897171       9.09768845      -0.00313136       0.08530112       0.07207297
Sn       1.39513362       5.22263746       9.12258389      -0.12131517      -0.00489658      -0.00188557
Sn      12.88538181       5.20305484       9.11326726      -0.01544790       0.03885928       0.06390367
Sn      24.41617013       5.22395170       9.11358000      -0.00918174       0.02369355       0.02828452
Sn       1.35418584       9.38630042       9.11806167       0.14278426       0.03166616       0.02253459
Sn      12.90308687       9.38957469       9.10932046      -0.11444372      -0.01234146       0.05729798
Sn      24.39815081       9.39410075       9.10841051       0.01416025       0.00270702       0.01919102
Sn       1.37047565      13.57763566       9.12260269       0.05058532      -0.01921145      -0.03311362
Sn      12.87462476      13.56025780       9.10462762      -0.00457149      -0.01979969       0.07028126
Sn      24.39739848      13.56865431       9.11224965       0.01943926      -0.01545290       0.02912931
Sn       1.38585099      17.74755844       9.10328820      -0.02542448      -0.03518658       0.05350769
Sn      12.86487279      17.72979541       9.13694783       0.05392981       0.03910566      -0.02845350
Sn      24.40764605      17.75587277       9.12131807      -0.09035567      -0.02056236      -0.02733941
Sn       1.36435910       1.03080399      13.48581670      -0.04026870       0.07297542      -0.01532720
Sn      12.88063373       1.04093236      13.49850036       0.02539656      -0.01440982      -0.07612151
Sn      24.39747338       1.05658890      13.46643911       0.02871861      -0.03332910       0.06341595
Sn       1.39333511       5.21363552      13.48939170      -0.14777155      -0.04403461      -0.05824018
Sn      12.89125814       5.21239466      13.49051016      -0.05348872       0.03943450      -0.09978055
Sn      24.40744686       5.21023678      13.47530685      -0.05484011      -0.01120313      -0.02353698
Sn       1.36690706       9.39030243      13.49625116       0.00938362       0.01438232      -0.03861838
Sn      12.88962209       9.39075313      13.48838064       0.00013104       0.03701421      -0.06731886
Sn      24.37827030       9.38530426      13.48519807       0.06975950       0.01611789      -0.02234070
Sn       1.37760765      13.56754420      13.49690225      -0.04751471      -0.03361016      -0.03751112
Sn      12.89127481      13.56066321      13.48091955      -0.00307743       0.03361810      -0.04221995
Sn      24.40282105      13.56106015      13.49763276      -0.01440768      -0.01391435      -0.08897398
Sn       1.35536673      17.74279671      13.48967432       0.06186468       0.01781781      -0.01831159
Sn      12.87946094      17.73424765      13.48155904      -0.01235551       0.01926780      -0.04540296
Sn      24.40685682      17.73463717      13.47163064      -0.05127843       0.04063510       0.00732309
Sn       1.37795984       1.04727205      17.85350231      -0.02009551       0.00550577      -0.00722670
Sn      12.89018873       1.06507798      17.85457346      -0.06056401      -0.06688113      -0.04040578
Sn      24.39149604       1.04798177      17.83784885       0.09699731       0.00364551       0.02145198
Sn       1.36191273       5.20324322      17.84056260      -0.03984038       0.01088389      -0.01640924
Sn      12.88804576       5.21670801      17.83243005       0.00601910       0.00705663       0.01633131
Sn      24.38350664       5.23848668      17.84667534       0.12903774      -0.10496016       0.03826811
Sn       1.35821330       9.39607520      17.86531560      -0.02757119       0.02112779      -0.04170055
Sn      12.88880004       9.36358669      17.86994665      -0.01783851       0.10667019      -0.06710385
Sn      24.38024437       9.38939725      17.83208969       0.06873009       0.01152302       0.04130905
Sn       1.35905397      13.56839060      17.82271350       0.08747621       0.00683103       0.09180846
Sn      12.88169296      13.57701993      17.83499133       0.01043936      -0.07541059       0.03344525
Sn      24.38483398      13.56415345      17.84004032       0.08600194      -0.01074930       0.05157151
Sn       1.36050172      17.72775218      17.84861558       0.00896025       0.06367285       0.02360235
Sn      12.88854805      17.72897918      17.83415120      -0.06119306       0.02351210       0.01770002
Sn      24.40010175      17.72998593      17.84521036       0.02871635       0.07095868       0.03112988
600
Lattice="34.548424260000004 0.0 0.0 0.0 20.870445700000005 0.0 0.0 0.0 21.8055194" Properties=species:S:1:pos:R:3:forces:R:3 mlfcs_configuration_id=8 mlfcs_sampling_method=gaussian pbc="T T T"
Se       4.13090496       1.04306576       0.09372757      -0.06916570       0.03560466       0.06415724
Se      15.63628695       1.04188744       0.10436217      -0.03287570       0.02340210       0.03338177
Se      27.15326057       1.05057436       0.10621876      -0.01606633      -0.00980178       0.01139529
Se       4.11561769       5.23838854       0.11786928       0.01481824      -0.10862293      -0.04461144
Se      15.64070138       5.21906518       0.09580630      -0.06578396      -0.03512664       0.02706160
Se      27.15978120       5.21919607       0.10009205      -0.11553141       0.05172841       0.07942702
Se       4.11379309       9.38218044       0.11643703       0.06009768       0.06585409      -0.03585763
Se      15.63919629       9.39365859       0.10543588       0.01369503      -0.00724969       0.00651525
Se      27.14170065       9.37054154       0.09173447      -0.04132455       0.09187306       0.04484923
Se       4.10879804      13.55700174       0.10875734       0.04775146      -0.00033736      -0.01871065
Se      15.64048085      13.56464701       0.11995291      -0.08285340       0.00537700      -0.06727107
Se      27.14067836      13.56457603       0.10535387       0.04247358       0.01282668       0.00742394
Se       4.12714636      17.74107942       0.10719943      -0.05049548      -0.00841335       0.00812527
Se      15.61581749      17.73102148       0.11682326       0.09000976       0.03781170      -0.04855311
Se      27.12775391      17.75345047       0.11086038       0.11690642      -0.05940946      -0.03042359
Se       4.10874928       1.03534350       4.48592717       0.04117531       0.03781135      -0.10761346
Se      15.64647998       1.04246958       4.46831353      -0.03413964      -0.01623723      -0.00851026
Se      27.14204552       1.04501183       4.46022858       0.11327367       0.02727025      -0.03307207
Se       4.11543907       5.23585642       4.46601148      -0.00730814      -0.05333830      -0.00291409
Se      15.62188570       5.20408940       4.46823879       0.06025270       0.04877118       0.02156991
Se      27.14089839       5.22021916       4.45077259       0.03656872      -0.04010964       0.09611901
Se       4.12312700       9.38124062       4.46743059      -0.06296607       0.06378350      -0.01219501
Se      15.62898289       9.40902615       4.46868251       0.03235271      -0.08229142      -0.02817674
Se      27.16796206       9.39744969       4.48122168      -0.09120507      -0.03283726      -0.04652939
Se       4.11413652      13.56938644       4.47915405      -0.02014252      -0.01467958      -0.05440400
Se      15.64141552      13.57124134       4.46368827      -0.04072376      -0.02776981       0.00625501
Se      27.14691957      13.57730802       4.48042673       0.01530979      -0.05532734      -0.05944906
Se       4.11029587      17.73258296       4.45792628      -0.04884814       0.03811151       0.05622194
Se      15.64066292      17.73072580       4.47514365      -0.06777641       0.07648318      -0.01985655
Se      27.15396424      17.73456963       4.48260621      -0.01729882      -0.00382177      -0.10874462
Se       4.10160191       1.06025931       8.83126036       0.06126267      -0.09419216      -0.02523207
Se      15.61163125       1.05958278       8.83779362       0.13262827      -0.09413086      -0.01242113
Se      27.14422522       1.03401678       8.81238083       0.04388690       0.08518553       0.08189733
Se       4.14037896       5.20851931       8.81543561      -0.10121110       0.03171959       0.11187767
Se      15.63504511       5.20137419       8.81825601      -0.05454056       0.08762601       0.06776133
Se      27.15845703       5.22239523       8.82420780      -0.04985647      -0.02740822       0.08793144
Se       4.11640756       9.38741756       8.82745152      -0.00529485       0.03469509       0.01342949
Se      15.62474780       9.38603987       8.82196472       0.05167559      -0.00444941       0.01659511
Se      27.14124873       9.40228138       8.83577267       0.03920311      -0.03570178      -0.03996256
Se       4.10690086      13.55398747       8.82649873       0.09855551       0.04397474      -0.02230844
Se      15.65391879      13.55565435       8.82645925      -0.15085546       0.01329823      -0.00467946
Se      27.14939454      13.56484498       8.82348940      -0.00297085       0.01648772       0.04817095
Se       4.12777530      17.74456513       8.83652955      -0.00495913      -0.03681611      -0.00245687
Se      15.63825972      17.74896003       8.84391556      -0.04144106      -0.04214492      -0.03770643
Se      27.16181778      17.76326858       8.84024491      -0.06728230      -0.06885220      -0.06370150
Se       4.10953003       1.05213711      13.19627973       0.04610983      -0.00876501      -0.01378108
Se      15.65156887       1.03399240      13.19475489      -0.05759433       0.04615016      -0.02050078
Se      27.14169663       1.04878944      13.18702791       0.01547792       0.01784670      -0.00130449
Se       4.12101919       5.20364974      13.19710764      -0.06900737       0.04370113      -0.04797974
Se      15.63442651       5.21927505      13.20867766       0.01962413       0.00318939      -0.06393320
Se      27.14468250       5.22117578      13.19017808       0.03913886      -0.04856148       0.01040236
Se       4.11820489       9.41406030      13.18981345       0.03679923      -0.08398424      -0.02688433
Se      15.62669312       9.41055129      13.18609849       0.00737058      -0.10807757       0.05757611
Se      27.13245556       9.38443383      13.17670950       0.04622730       0.03717372       0.03997553
Se       4.09822484      13.56230126      13.18847322       0.13168144      -0.00191479      -0.03790768
Se      15.64417120      13.57222542      13.19501372      -0.05348309      -0.00118592      -0.00099211
Se      27.13957524      13.57478074      13.20308771       0.02812168      -0.06360622      -0.06463935
Se       4.12017021      17.74424572      13.17652845      -0.08661545      -0.00259874       0.04101874
Se      15.64291028      17.75782885      13.19240490      -0.09369221      -0.06449843      -0.02919801
Se      27.14256376      17.73840060      13.18497117       0.05886270       0.00461970      -0.01787674
Se       4.11262000       1.05014382      17.55307390      -0.03439325      -0.02240799       0.00159439
Se      15.64240528       1.04737301      17.54163838      -0.00658005      -0.02752335       0.03686168
Se      27.14350042       1.03803557      17.54841456       0.01654396       0.04214288      -0.01525189
Se       4.13417163       5.23730212      17.55864527      -0.05210734      -0.06691919      -0.04072815
Se      15.63355356       5.20413660      17.55247934       0.02381739       0.09085603      -0.02015759
Se      27.14060726       5.23405834      17.53421820       0.03575091      -0.04585615       0.06482091
Se       4.12006934       9.38309987      17.55018411      -0.04289258       0.02231577      -0.00364414
Se      15.63902660       9.40206195      17.54967236      -0.04313105      -0.05689948       0.04282965
Se      27.15611950       9.38521756      17.55273464      -0.01481007       0.03495398       0.02455662
Se       4.12624657      13.56925240      17.54498582      -0.04961843      -0.05442654       0.07286054
Se      15.62957549      13.57608797      17.53936081       0.02258716      -0.03157490       0.05256476
Se      27.13906419      13.57194729      17.54588782       0.01610209      -0.02239170      -0.00764825
Se       4.10169392      17.75352873      17.53928325       0.05575321      -0.07884663       0.02607934
Se      15.63037162      17.73382534      17.54730242      -0.01039083       0.03041106      -0.01110348
Se      27.13966114      17.74716334      17.55138749      -0.02432277      -0.01758053      -0.03326814
Se       7.40894720       3.12461687       4.27658089      -0.01880297       0.03350278      -0.05318024
Se      18.89620560       3.11485721       4.27278153       0.13482897       0.06479742      -0.11958084
Se      30.43613392       3.13412242       4.25956343      -0.04561707      -0.01297265      -0.00808534
Se       7.40482274       7.30779537       4.24559163      -0.00862516      -0.03961461       0.05205860
Se      18.92343399       7.31140448       4.26953499       0.03750208      -0.03441434      -0.03374020
Se      30.44903591       7.30810246       4.24297519      -0.08712355       0.00001430       0.06108166
Se       7.41683589      11.46870534       4.25863032      -0.14290563       0.04107058       0.02457364
Se      18.91268474      11.47458058       4.26289368      -0.05516031       0.01510186      -0.04783437
Se      30.43383810      11.48401925       4.24709381      -0.02769198      -0.01493498       0.02276718
Se       7.39736991      15.64528063       4.25325996       0.00288959       0.01077248       0.03256252
Se      18.91406446      15.67141902       4.25265679       0.05665733      -0.06214454       0.03345369
Se      30.41013752      15.66692689       4.25974327       0.15340678      -0.05763310      -0.01718966
Se       7.39780056      19.82269296       4.24578142       0.03624723      -0.00917869       0.03208944
Se      18.93463256      19.82758356       4.23787317      -0.08195003       0.02899256       0.08098977
Se      30.43467090      19.83912683       4.25681502      -0.02386753      -0.06650819      -0.01576299
Se       7.39009473       3.12079781       8.60718137       0.06261255       0.05484305       0.02870832
Se      18.93046866       3.12999191       8.59956731      -0.08681338       0.00548127       0.03272401
Se      30.43523484       3.13211892       8.61186560      -0.08365010       0.01147962       0.01060605
Se       7.38890660       7.29415875       8.62722090       0.00093318       0.07487368      -0.06190909
Se      18.91772721       7.30958413       8.61880215      -0.06446991      -0.06131679       0.00032954
Se      30.43467039       7.30011375       8.61429626      -0.04222922       0.01623750       0.04125295
Se       7.41075978      11.49303274       8.60413364      -0.10272837      -0.06680850       0.07726920
Se      18.91316950      11.48727969       8.63517535      -0.00845127      -0.05024961      -0.10011591
Se      30.44921310      11.47092926       8.62910502      -0.14633701      -0.00109817      -0.04326354
Se       7.39969703      15.66342014       8.62423734      -0.00733814      -0.04859264      -0.01806763
Se      18.90261244      15.65847571       8.62641152       0.08919435      -0.03026991      -0.06625786
Se      30.43119195      15.65051281       8.60063792       0.02206919       0.01148429       0.03959090
Se       7.40594684      19.82915260       8.60713272      -0.02415282      -0.00739033       0.02905944
Se      18.91199368      19.82861015       8.61076820       0.04342386       0.02202452       0.05510040
Se      30.43142028      19.80956579       8.62984877       0.06860393       0.08124197      -0.05381667
Se       7.39926976       3.11971502      12.95286135      -0.04594795       0.02595134       0.08768621
Se      18.92554343       3.13628947      12.97956529       0.02088852      -0.04031437      -0.07179233
Se      30.44002998       3.13931754      12.97940282      -0.09526678      -0.03057092       0.01337570
Se       7.39656852       7.30062628      12.98166786       0.02336463       0.02409691      -0.00913694
Se      18.92922240       7.30376866      12.99222321      -0.06114134      -0.00964843      -0.08824435
Se      30.43512503       7.30860460      13.00150953      -0.01710205       0.02607283      -0.08170092
Se       7.41563745      11.49567293      12.96948230      -0.03735109      -0.07424703      -0.00193982
Se      18.93717391      11.47806467      12.97518353      -0.07215729       0.00338229       0.03761657
Se      30.40980102      11.48214974      12.96662490       0.08661000      -0.03172620       0.06490657
Se       7.40319320      15.64136032      12.99543544       0.03766637       0.06571736      -0.10234153
Se      18.92076782      15.67577469      12.96722820      -0.02758937      -0.13163947       0.03229231
Se      30.44688530      15.63494885      12.97953919      -0.04731751       0.04064375       0.02731185
Se       7.39279443      19.82258555      12.97229347       0.01856842       0.02720654       0.01767168
Se      18.90610492      19.81446823      12.97303417      -0.01398955       0.08871039      -0.00227339
Se      30.43255379      19.83870206      12.98041194       0.01749730      -0.05621579      -0.04903429
Se       7.41077607       3.11592679      17.33423262      -0.05769766       0.03530111       0.03093006
Se      18.92236213       3.13414046      17.32995057       0.00328767      -0.03606055       0.04165790
Se      30.44073419       3.12539582      17.33078868      -0.05263389      -0.00907231       0.08085425
Se       7.40398014       7.30485939      17.33333319      -0.05719603       0.00002676       0.02220447
Se      18.90968340       7.29409973      17.33460483       0.01046483       0.04204312       0.02228704
Se      30.44239360       7.30724320      17.34814826      -0.04925150       0.01828034       0.00238061
Se       7.40427135      11.47276437      17.32207090      -0.00733465      -0.00254268       0.06993522
Se      18.90598354      11.47217448      17.33107649       0.08711413       0.04432632       0.01961842
Se      30.44120370      11.48859272      17.36068111       0.00672664      -0.05031645      -0.14247964
Se       7.39147345      15.66895046      17.35447499       0.03824024      -0.09320194      -0.08284985
Se      18.91292945      15.65771153      17.35096965      -0.04908420      -0.02454669      -0.07205090
Se      30.43080426      15.65161206      17.33228894       0.03203099       0.00960670      -0.00391972
Se       7.37551028      19.82776983      17.33146362       0.06460816       0.03429276       0.04466479
Se      18.90449860      19.83128703      17.32404919       0.03582249      -0.01503259       0.08546641
Se      30.43945430      19.83190111      17.33456038      -0.02540212      -0.05347795       0.01155684
Se       7.39847756       3.11880634      21.70716958       0.07821605       0.07585304      -0.01310334
Se      18.91712573       3.13332705      21.70468510      -0.02582798      -0.00127629      -0.02159274
Se      30.42496935       3.11551797      21.70923938       0.06370333       0.04803157      -0.03166696
Se       7.40599785       7.29944411      21.70375730      -0.06314740      -0.00896350      -0.03746561
Se      18.92783182       7.31618470      21.69402061      -0.02432172      -0.05828266       0.05676501
Se      30.41650589       7.29162554      21.69654894       0.08254817       0.07763782       0.03984561
Se       7.41373384      11.47160238      21.69370292      -0.04567518       0.00277796       0.03091670
Se      18.90908297      11.47356953      21.69955393       0.08385022       0.02311109       0.02161357
Se      30.41859300      11.48973043      21.69821799       0.03944397      -0.03598948       0.01078132
Se       7.42390201      15.64124027      21.71556486      -0.11216725      -0.00275635      -0.08097862
Se      18.92916554      15.64885914      21.69571559      -0.06486516       0.03771551       0.03286340
Se      30.42218053      15.64387776      21.69966014       0.01569453       0.07777335      -0.02438462
Se       7.39931762      19.81104156      21.72260125       0.01176128       0.11818156      -0.09422135
Se      18.91265692      19.82772124      21.69340382       0.01629147       0.02388866      -0.00270625
Se      30.42872341      19.82348633      21.69963689       0.01355051       0.00070127      -0.02821340
Se       1.64089405       3.13875722       2.28868788       0.04182987      -0.03197680      -0.01582003
Se      13.16422420       3.13061045       2.28872820      -0.02188226      -0.03905545       0.01136016
Se      24.67090974       3.14073967       2.28964190       0.00618160       0.00361365      -0.04519596
Se       1.63945921       7.30291859       2.28532328       0.00019213      -0.01752399       0.00874017
Se      13.15748581       7.30423408       2.28082726      -0.01851759      -0.00509724       0.01979180
Se      24.68097180       7.31307846       2.30425425      -0.07784896      -0.03187479      -0.04695747
Se       1.63500366      11.48555122       2.26732430       0.05339705      -0.05492676       0.08818149
Se      13.16547180      11.46432101       2.27657237      -0.04079208       0.07908824       0.02520282
Se      24.67664505      11.47267184       2.27883214      -0.07167505       0.00986708       0.02751119
Se       1.63619179      15.66027224       2.27708677       0.00870100      -0.02181743       0.04233695
Se      13.15663983      15.64918941       2.29461458       0.00073138       0.03443292      -0.05192568
Se      24.68180201      15.63462316       2.29686677      -0.04165130       0.03687104      -0.05657762
Se       1.63493239      19.82942804       2.27702659      -0.00832699      -0.00516818       0.06350062
Se      13.16089272      19.85257860       2.28768733      -0.05898159      -0.09376052       0.00680284
Se      24.66872432      19.82474350       2.27172538      -0.00443438       0.02100268       0.07765633
Se       1.65552959       3.13383739       6.63703058      -0.05636020      -0.01517569       0.00735622
Se      13.14701819       3.13086138       6.65683951       0.03246422       0.01843055      -0.06501054
Se      24.66181289       3.14184265       6.64660322       0.02987526      -0.03214622       0.05244615
Se       1.63173752       7.30012079       6.66500510       0.06049404       0.05433133      -0.08311151
Se      13.14329924       7.29747877       6.65704539       0.05757935       0.02912720      -0.00848663
Se      24.67548736       7.29688529       6.65716749      -0.02619126       0.02308940      -0.03922538
Se       1.65116291      11.48220074       6.64139559      -0.07720415      -0.00530785      -0.03643638
Se      13.15259833      11.48173360       6.63440027       0.01964603      -0.03330818       0.06835103
Se      24.68660064      11.49588893       6.64516001      -0.06312244      -0.08153915      -0.00348992
Se       1.64460100      15.66483400       6.66707517      -0.01713457      -0.04323262      -0.09037047
Se      13.17275119      15.63562060       6.64436402      -0.05100321       0.07843932       0.05261798
Se      24.67832968      15.64803380       6.66534722      -0.00273202       0.04042859      -0.06209488
Se       1.65733371      19.81890581       6.64589556      -0.10683363      -0.00260073      -0.03313889
Se      13.14968583      19.82511383       6.64526523       0.07858652      -0.03170461       0.01711118
Se      24.68286537      19.81818047       6.62135206      -0.05162328       0.02007758       0.10380818
Se       1.62499452       3.12042554      11.00206652       0.07168478       0.05250785       0.03196053
Se      13.15905312       3.11991062      10.99651243       0.04873147       0.02773151       0.06874456
Se      24.66402832       3.11955202      11.00307850       0.02421269       0.07025146       0.04580390
Se       1.63506708       7.31168826      10.99872814       0.01090188      -0.02870301       0.03071189
Se      13.15360541       7.29934747      11.01671229       0.03342271       0.00504284      -0.03698636
Se      24.67178000       7.31530466      10.99709974       0.06113247      -0.01249598       0.03386251
Se       1.64054629      11.47312793      10.99636298       0.06349973       0.01624649       0.04933403
Se      13.15650626      11.49621611      11.00009435      -0.03697101      -0.06438763       0.08320452
Se      24.67204824      11.46576452      10.99403116       0.01639969       0.07208766       0.05061563
Se       1.63316743      15.64847615      11.00456761       0.00933957       0.04242881       0.00548741
Se      13.15492112      15.63649265      11.00236397       0.08010484       0.09748646       0.03332506
Se      24.67834038      15.63939352      11.00507198      -0.03812444       0.07574246       0.00809106
Se       1.64396839      19.81924245      11.01203868      -0.06796256       0.04024202      -0.00507936
Se      13.14197011      19.83594961      11.01228144       0.09308467      -0.04100739       0.02826188
Se      24.67387945      19.83831330      11.00532995      -0.04918425       0.00556763       0.06174385
Se       1.63486139       3.14443400      15.38813498       0.05115968      -0.06407835      -0.01596494
Se      13.15024700       3.12957112      15.38017774       0.08308332      -0.04589276      -0.04595236
Se      24.67254134       3.13665444      15.37753135       0.01703170      -0.03708160      -0.02504736
Se       1.63541691       7.30899044      15.36966539       0.05820581      -0.03979537      -0.00309345
Se      13.14501269       7.29490117      15.36320315       0.03194552       0.03868171      -0.01565093
Se      24.68260799       7.31441128      15.37722645      -0.02716030      -0.03155265      -0.01730282
Se       1.64544106      11.48301510      15.37250292      -0.03372807      -0.03331781      -0.01030423
Se      13.16125734      11.48364046      15.35568310      -0.02483828      -0.03879247       0.01803621
Se      24.66542032      11.46859762      15.38079877       0.01637365       0.06073320      -0.06711374
Se       1.65758095      15.63128550      15.38537546      -0.04918335       0.10958225      -0.06269088
Se      13.15804859      15.66310317      15.37479199      -0.04640554      -0.02962667      -0.04164216
Se      24.68772674      15.65507340      15.35609277      -0.00361299      -0.00588094       0.04946300
Se       1.63998320      19.83222168      15.36756771      -0.01816170      -0.03750995      -0.00072105
Se      13.16375869      19.82640814      15.36377222      -0.03812677      -0.04593709       0.01580485
Se      24.66246301      19.82314696      15.37177303       0.04059841       0.05410237       0.03304366
Se       1.62144604       3.12290779      19.71086428       0.11303872       0.02194179       0.05018159
Se      13.15101063       3.14268170      19.71897003       0.07489950      -0.07242866       0.06528421
Se      24.68035439       3.15919681      19.74536658      -0.00003754      -0.09561535      -0.07269012
Se       1.64237509       7.31338204      19.71713437      -0.00547070      -0.03543797       0.05899214
Se      13.14144723       7.30508468      19.73481730       0.11807708       0.03003545      -0.03688074
Se      24.68426684       7.29911007      19.73276515      -0.04823396       0.01631693       0.00522069
Se       1.64263107      11.47757289      19.73010645      -0.01297415       0.01599417      -0.00646655
Se      13.14863433      11.48168391      19.73278170      -0.00527007      -0.01687290       0.01205357
Se      24.66892268      11.48554458      19.74110951       0.00677969      -0.00858140      -0.08129424
Se       1.64781372      15.64255154      19.73182765      -0.03098393       0.07454837      -0.03086099
Se      13.14806706      15.65394152      19.72175583       0.05085049      -0.03073403       0.02395447
Se      24.68609443      15.66080929      19.74236109      -0.10200517      -0.02722798      -0.02479261
Se       1.65155717      19.82435912      19.72657510      -0.06973558       0.00124341      -0.00677746
Se      13.17459861      19.82541392      19.71728539      -0.01440090       0.02090065       0.06964122
Se      24.68339746      19.82850287      19.74589064      -0.05143826       0.00978171      -0.07145138
Se       9.87672490       1.04346397       2.08995995      -0.00893950      -0.01146759      -0.08318661
Se      21.37505196       1.03781036       2.06582511       0.09943369       0.03590260       0.02315639
Se      32.88462725       1.05239575       2.06912455       0.08557913      -0.01321697       0.04648189
Se       9.88334889       5.22164399       2.08077016      -0.06141401      -0.01371537      -0.01796876
Se      21.38588263       5.21011064       2.07559635       0.00337548       0.01949093       0.03724550
Se      32.91576973       5.21724931       2.06767937      -0.03926492      -0.00541305       0.00605915
Se       9.86230503       9.39388390       2.06915806       0.01911952      -0.00727321      -0.00644501
Se      21.38971922       9.38945448       2.07025443       0.03309201       0.01180108      -0.00146334
Se      32.90951608       9.39738731       2.09435153      -0.02786251      -0.04980492      -0.14730971
Se       9.88187488      13.58186823       2.06651273       0.00202720      -0.06592457       0.01845497
Se      21.37442718      13.56578710       2.08327901       0.11390147       0.01482090      -0.01482768
Se      32.91358966      13.57804522       2.04933328      -0.07494732      -0.06846100       0.12059320
Se       9.88682498      17.74337517       2.05925860      -0.09308772      -0.03455270       0.06700016
Se      21.39767192      17.74171537       2.07851103      -0.05892609      -0.04657527      -0.05031621
Se      32.91656914      17.74432330       2.05997049      -0.08276158      -0.03035258       0.09122407
Se       9.87286494       1.02748753       6.44229324       0.04350553       0.02375500      -0.03511247
Se      21.40441633       1.03124947       6.42908798      -0.08464836       0.03980420       0.00655034
Se      32.89775435       1.03912493       6.43992685       0.04407910       0.03258182       0.01174737
Se       9.86986452       5.22427843       6.44645641      -0.02052306      -0.01900298      -0.02755827
Se      21.40145422       5.20657131       6.44966191      -0.08648003       0.03074397      -0.09584665
Se      32.92123877       5.23327992       6.43422447      -0.04974564      -0.06111290       0.02991164
Se       9.86677678       9.38199985       6.42478482       0.06564511       0.04036956       0.03104963
Se      21.39055353       9.40032078       6.44886820      -0.02491446      -0.02323380      -0.05734183
Se      32.90172248       9.39145538       6.43476074       0.01637938      -0.01224255      -0.01587592
Se       9.86794241      13.57328890       6.43943110       0.03124527      -0.00680063      -0.00322589
Se      21.39185486      13.56951446       6.44195713       0.00150685      -0.00607542      -0.02967881
Se      32.91263242      13.55754651       6.44476590      -0.00304140       0.05932975      -0.06135981
Se       9.87684887      17.73567438       6.43814491      -0.01308961      -0.00205617      -0.04303741
Se      21.39388140      17.75083838       6.42534106       0.03478902      -0.04696407       0.05787325
Se      32.91982789      17.74025221       6.43074108       0.00159703       0.01693160       0.00427379
Se       9.86892763       1.03365031      10.77949735       0.04992328       0.03340979       0.10036494
Se      21.39721063       1.06347285      10.78073034      -0.02150654      -0.05272679       0.05124325
Se      32.89707377       1.05117982      10.79645013       0.03220967      -0.07029088      -0.01921353
Se       9.88263940       5.21673592      10.79110022      -0.09201462      -0.00276993      -0.00174606
Se      21.38817821       5.19393223      10.78547165       0.01851976       0.12666289       0.03191792
Se      32.91606084       5.22967212      10.81096816      -0.07731970      -0.06834331      -0.02610623
Se       9.87870390       9.36928158      10.79055643      -0.05009746       0.10958075      -0.00075614
Se      21.40368318       9.40807281      10.81053297      -0.03922354      -0.06459404      -0.02781103
Se      32.90421552       9.37877651      10.79650018      -0.00011108       0.04544877       0.00860188
Se       9.87444328      13.58158705      10.79918441      -0.02260423      -0.03890404      -0.01395818
Se      21.39060344      13.56666636      10.80090509       0.07510852       0.00681079      -0.04222394
Se      32.91284245      13.55868603      10.78633029      -0.01215570       0.05379735      -0.00655846
Se       9.88800079      17.72361013      10.81328397      -0.05521095       0.05883918      -0.00682955
Se      21.37132984      17.73417513      10.80662504       0.16422196       0.05384467      -0.00756248
Se      32.90658147      17.72685578      10.80117078       0.05274367       0.05452138      -0.02510693
Se       9.87496525       1.04150350      15.15177115       0.01413579      -0.00722527      -0.03320788
Se      21.39009057       1.03784477      15.18235570      -0.00696002       0.01322913      -0.11865323
Se      32.90417788       1.03992642      15.15259402      -0.00725320       0.01149285       0.02074245
Se       9.89206472       5.20136246      15.16160470      -0.13709090       0.02655586      -0.04086246
Se      21.38804373       5.20351912      15.14981961       0.08664843       0.03948917       0.05498773
Se      32.90974759       5.20910919      15.16060602      -0.00365115       0.00340226       0.01554062
Se       9.89158674       9.39354827      15.14347525      -0.08313478      -0.01131167       0.03633770
Se      21.38196866       9.38898821      15.15448803       0.05684431       0.01087820       0.03412417
Se      32.90809819       9.39496669      15.17531566      -0.06220266       0.03375773      -0.02652571
Se       9.87425801      13.55440946      15.16954844       0.03965652       0.04982249      -0.03942547
Se      21.40306687      13.56825584      15.15554643      -0.09749918      -0.00458081       0.04353579
Se      32.91280351      13.56382061      15.13745329      -0.06307852      -0.00314636       0.09690029
Se       9.87992995      17.74894306      15.17242125      -0.01390089      -0.06732616      -0.11111564
Se      21.38312904      17.74228220      15.16048837      -0.01566513      -0.01542350      -0.04393176
Se      32.90743187      17.74116911      15.15838174       0.00741221      -0.02624395      -0.01715963
Se       9.87641270       1.05107080      19.53131713      -0.02039539      -0.01510490      -0.06755410
Se      21.38287330       1.04194097      19.51488818       0.05435396       0.00108924       0.02005901
Se      32.90092132       1.02750367      19.51935648       0.07001754       0.06918412       0.02642692
Se       9.87908841       5.21620213      19.51902468      -0.04635242       0.00756162       0.00938472
Se      21.39462100       5.23186432      19.51491661      -0.00217912      -0.03867693       0.03465639
Se      32.89486193       5.21684872      19.53794987       0.06790449      -0.05588452      -0.06040480
Se       9.86268620       9.39834362      19.53069339       0.04076511      -0.02373132      -0.01939195
Se      21.36678129       9.39594449      19.52514836       0.16820777      -0.00692200      -0.04118939
Se      32.90390470       9.38537788      19.51320763       0.04411928       0.00686581       0.04567094
Se       9.87100952      13.56291044      19.51420649       0.00503474       0.01743776      -0.00450546
Se      21.38699188      13.57783932      19.50696997       0.02013964      -0.07987669       0.02481079
Se      32.88908746      13.57799926      19.51719408       0.12570562      -0.08208662       0.01671712
Se       9.87041288      17.73890837      19.52120702       0.01295710       0.04034554      -0.01488739
Se      21.38519612      17.74507986      19.50949163       0.01798843      -0.05670076       0.05301266
Se      32.90355979      17.71787358      19.53083663      -0.01846086       0.08180474      -0.05154320
Sn       7.12253930       1.05036503       1.78682866      -0.00262138      -0.03569392       0.02093098
Sn      18.64593973       1.04358623       1.78594518      -0.06623258      -0.02043530       0.00823818
Sn      30.14697017       1.03195220       1.78105185      -0.03468652       0.01646866       0.01906710
Sn       7.11750241       5.23200777       1.78581435       0.07077778      -0.06383287       0.00751668
Sn      18.63327678       5.21503772       1.78339298       0.02114352       0.05873384      -0.03450099
Sn      30.15590299       5.22047059       1.78274946       0.02188910      -0.01156319      -0.01078267
Sn       7.11039361       9.37033322       1.77832682       0.02627116       0.06209503       0.02022638
Sn      18.64604652       9.38821857       1.79442855      -0.05403602      -0.00306297      -0.05233385
Sn      30.15611415       9.40541423       1.79358194      -0.02349970      -0.05432436      -0.04886137
Sn       7.13481304      13.55389629       1.78223432      -0.02562361       0.00698299       0.01659998
Sn      18.65266933      13.56865485       1.78760651      -0.10321334       0.00420905      -0.03891176
Sn      30.14270414      13.58511930       1.77414917       0.08417159      -0.03854548       0.03951201
Sn       7.10435592      17.73650929       1.75758807       0.10845147      -0.03298483       0.11442609
Sn      18.62959034      17.76560566       1.77826250       0.06091882      -0.07892558       0.02293054
Sn      30.14230514      17.74027352       1.77308487       0.09452714      -0.03023125       0.02428471
Sn       7.13294537       1.03476854       6.14587413      -0.04500222      -0.01591431       0.00167469
Sn      18.62897100       1.06965427       6.14820303       0.07915300      -0.15156579       0.00093607
Sn      30.15512796       1.04073440       6.13763079      -0.03370615       0.01048301       0.02454032
Sn       7.11669104       5.20986916       6.15995008       0.04579325       0.01637368      -0.05984096
Sn      18.63491546       5.19645894       6.13150711       0.04629762       0.07625829       0.04331914
Sn      30.16586026       5.21522988       6.14182597       0.01739128       0.05086111      -0.00054578
Sn       7.13599832       9.38407060       6.14949097      -0.08191483       0.00369691      -0.03848164
Sn      18.63376276       9.39760103       6.13925544       0.02212379      -0.05010924       0.03981885
Sn      30.15416752       9.40004360       6.15064704      -0.00608920      -0.03621169      -0.04744952
Sn       7.12264590      13.56121517       6.15915827       0.00433929       0.00926228      -0.05352723
Sn      18.64633490      13.56201999       6.13663595      -0.03200805       0.07897683       0.00347654
Sn      30.16683199      13.56708541       6.14153126      -0.01959450       0.01796698      -0.01154213
Sn       7.12544993      17.74339851       6.14259990      -0.00100007      -0.01687058      -0.03617439
Sn      18.65247846      17.75261393       6.14848567      -0.02342237       0.00167977      -0.03704951
Sn      30.17033020      17.74010551       6.15007010      -0.03708008       0.03084487       0.00332087
Sn       7.13434474       1.05385437      10.51343066      -0.02904179      -0.03627107      -0.03465906
Sn      18.64675349       1.06323527      10.49887371       0.00034906      -0.06388416      -0.02684818
Sn      30.15503081       1.04151888      10.50059000      -0.03674675      -0.00945718       0.01787044
Sn       7.10441245       5.23150177      10.49401027       0.09139407      -0.09389276       0.04062250
Sn      18.64213974       5.20353451      10.51047783      -0.01110340       0.04305822      -0.04838258
Sn      30.14872905       5.20639351      10.50621410       0.08882463       0.04041919      -0.00757407
Sn       7.11729283       9.38610067      10.50598857       0.05144837       0.03106418      -0.01138154
Sn      18.64844149       9.38365826      10.49435875       0.00956256       0.02840572       0.06690186
Sn      30.15681785       9.39723479      10.51889822       0.00559064      -0.05154352      -0.02000824
Sn       7.11358688      13.56275173      10.51602853       0.05315243       0.04473862      -0.03915829
Sn      18.66017254      13.55600050      10.49688255      -0.13968572       0.04619556       0.07050208
Sn      30.16039402      13.56015397      10.49667835      -0.00220462       0.04349247       0.04066717
Sn       7.12674488      17.75551474      10.49117585       0.03101552      -0.01818537       0.03897598
Sn      18.65542494      17.73427285      10.50772859      -0.11116336       0.04189711      -0.00473669
Sn      30.17249152      17.74327378      10.50129576      -0.08898525      -0.06432276       0.02681322
Sn       7.13148193       1.04193232      14.87058806      -0.03320506      -0.00829134      -0.02440223
Sn      18.63839478       1.05227551      14.85143223      -0.00095124      -0.04868629       0.05289756
Sn      30.14644780       1.02957470      14.86481026       0.02352531       0.07742788       0.01975111
Sn       7.10900479       5.21083481      14.85429946       0.11328269      -0.00102358      -0.01432472
Sn      18.65523836       5.20784632      14.85250909      -0.07310308       0.03116706       0.09509941
Sn      30.15906640       5.23462134      14.86421388       0.02093694      -0.06930541       0.05914640
Sn       7.12391298       9.40474984      14.87415684       0.08852127      -0.02184071      -0.03547818
Sn      18.64469574       9.38601886      14.86993413      -0.02680166       0.04511829       0.01038343
Sn      30.14297517       9.38560551      14.87968918       0.07827860       0.05627334      -0.03769648
Sn       7.13732010      13.57030625      14.84608101      -0.07772794      -0.03563272       0.09651299
Sn      18.62835938      13.55913668      14.86365756       0.09507972       0.01029690      -0.04721974
Sn      30.14407890      13.56346827      14.88304750       0.09179768      -0.00859592      -0.07810607
Sn       7.12830853      17.74220881      14.85519900      -0.05037670      -0.00403047       0.04261652
Sn      18.62405175      17.72773858      14.84858066       0.03582164       0.04636336       0.06505307
Sn      30.15733337      17.74385940      14.85572165      -0.00136321      -0.03842926      -0.00730532
Sn       7.12577937       1.05835392      19.24605540       0.00453663      -0.06105623      -0.04868542
Sn      18.64814570       1.04191558      19.23385947      -0.03392529      -0.00948158      -0.08366515
Sn      30.17010111       1.02359170      19.24129912      -0.06577454       0.07648601      -0.04485926
Sn       7.11885431       5.21240350      19.22292915       0.05401228      -0.00103936      -0.02649749
Sn      18.64364244       5.20664058      19.22363029       0.00005569       0.02935959      -0.01227676
Sn      30.16183579       5.21993884      19.23028658      -0.06015408      -0.02785223      -0.01503630
Sn       7.12106049       9.39877936      19.23704259       0.00346381      -0.00368841      -0.05901581
Sn      18.65040599       9.39611837      19.23586736      -0.13632562      -0.01846646      -0.02338815
Sn      30.16529362       9.41860734      19.23865910      -0.03075253      -0.09755170       0.02319030
Sn       7.12341273      13.55681461      19.22386703       0.00344399       0.00290092      -0.01179874
Sn      18.63712375      13.57104563      19.21947587      -0.02230167      -0.05743578       0.03709975
Sn      30.16850479      13.55203578      19.21015318      -0.13435321       0.10679292       0.09149467
Sn       7.12294901      17.73159495      19.21389609      -0.03355098       0.06754990       0.05718762
Sn      18.63407090      17.73240569      19.22657977      -0.00174072       0.08046104      -0.01486832
Sn      30.15037831      17.73462920      19.22642977       0.01913261       0.00593499      -0.02577724
Sn       4.40117740       3.14541601       2.58052918      -0.05037309      -0.04053220       0.06551325
Sn      15.90943184       3.12887669       2.58386399       0.02909148      -0.01817077      -0.01589703
Sn      27.42722002       3.14396703       2.56016446      -0.03755564      -0.04221737       0.02474965
Sn       4.38869001       7.30818959       2.57878866       0.00752881      -0.00574183       0.00214188
Sn      15.89778468       7.29180403       2.58711473       0.04143544       0.03959021      -0.00086205
Sn      27.41574857       7.28724869       2.58761723       0.08369311       0.10321674      -0.03002962
Sn       4.39562482      11.47772809       2.56990599      -0.04242135       0.01053074       0.05027468
Sn      15.90604199      11.49104271       2.56290451       0.01616197       0.00572688       0.02664458
Sn      27.40767805      11.47260918       2.57878507       0.06970197       0.01025765       0.02957281
Sn       4.38607207      15.65940414       2.58993984       0.03018794      -0.04815698      -0.03945890
Sn      15.90996409      15.65858030       2.58177250      -0.00287491      -0.01786281      -0.00206267
Sn      27.42341291      15.64004039       2.56877159       0.00851474       0.05446792       0.06896705
Sn       4.37752580      19.82558007       2.58137428       0.05626486       0.02047561       0.01072546
Sn      15.89268378      19.82779107       2.57029934       0.07756674      -0.01972850       0.06129231
Sn      27.41262583      19.82081162       2.56784674       0.01347910      -0.01025222       0.05350510
Sn       4.39710158       3.12902851       6.94830752       0.01827566      -0.02569267      -0.07294271
Sn      15.90274144       3.12665169       6.95888921      -0.04250159       0.00297565      -0.06814791
Sn      27.40708722       3.14355337       6.95670062       0.05709498      -0.03840293      -0.08523117
Sn       4.39869316       7.30149299       6.95442440      -0.05873694       0.02164243      -0.06746655
Sn      15.90395879       7.29773984       6.93627270      -0.02179509      -0.00349332       0.01962362
Sn      27.41761589       7.29533146       6.95125546       0.04164664       0.09043004      -0.03518289
Sn       4.38330050      11.47859037       6.92571767       0.04801379      -0.02703629       0.00793257
Sn      15.90748451      11.46732757       6.92835053      -0.02337846       0.04765415       0.03615796
Sn      27.42222495      11.48945656       6.94455952       0.04569931      -0.04668240      -0.02991394
Sn       4.39612619      15.65167680       6.93679898      -0.00587636      -0.00048468       0.02514568
Sn      15.91508781      15.64734420       6.94849973       0.03552240      -0.00878204       0.01980149
Sn      27.43567730      15.64456211       6.93321093      -0.05519720       0.08142633       0.04155293
Sn       4.38557803      19.81239549       6.93546136       0.06671390       0.07218037       0.01454328
Sn      15.92019090      19.81660936       6.95340735      -0.06514067       0.04257369      -0.00579563
Sn      27.41898338      19.84820547       6.93333725       0.06588658      -0.11199320      -0.03723334
Sn       4.38959517       3.12160672      11.29438226      -0.05314562       0.02036449       0.01427972
Sn      15.92055820       3.13545392      11.31154744      -0.06746407      -0.00714135       0.00857587
Sn      27.41016193       3.13725684      11.29154483       0.02898011      -0.02998388       0.04581769
Sn       4.37766180       7.30718536      11.30354465       0.00697920      -0.01173688       0.04472919
Sn      15.90770986       7.31197328      11.30999493      -0.01728704      -0.02621315      -0.00858112
Sn      27.43801512       7.29289427      11.31627943      -0.06557653       0.05291350      -0.05725963
Sn       4.40985810      11.47522454      11.28457435      -0.10828252       0.03700754       0.03273141
Sn      15.89334142      11.47426832      11.32140068       0.10646449       0.08551464      -0.09799874
Sn      27.42348863      11.47271499      11.29440524      -0.02600195       0.02306845       0.03504856
Sn       4.37780776      15.66172174      11.30033858       0.02770753      -0.02330969       0.01422005
Sn      15.92817470      15.65925807      11.30955863      -0.06766334      -0.02357201      -0.01437647
Sn      27.42089678      15.64206567      11.29252345       0.03947383       0.03480393       0.01409079
Sn       4.37734252      19.83616906      11.29741011       0.06915287      -0.00712018       0.00641764
Sn      15.91670141      19.82842426      11.29833108      -0.04993375       0.00442757      -0.01158549
Sn      27.41162180      19.83008144      11.29907293       0.06989852      -0.02313815      -0.00361216
Sn       4.40005683       3.12355445      15.66852422      -0.04311266       0.05090155       0.01811711
Sn      15.92358489       3.13343411      15.67021606      -0.07617656       0.00663176      -0.02017145
Sn      27.42903673       3.14968947      15.66607875      -0.00928073      -0.06545099       0.00373472
Sn       4.39803457       7.30443493      15.65461926      -0.04510033       0.00127789       0.01186428
Sn      15.89509465       7.31746694      15.65227955       0.00064364      -0.07199289       0.04076186
Sn      27.43077647       7.30895786      15.67154100       0.01519077       0.00957967      -0.04738928
Sn       4.38588787      11.47097954      15.66614686       0.03460985       0.01477946      -0.01791737
Sn      15.90425299      11.46657655      15.68174840       0.03555551       0.06085915      -0.07437286
Sn      27.41540374      11.46895051      15.65994179      -0.04086929       0.03589813       0.00271283
Sn       4.40356357      15.63130862      15.67406198       0.03267404       0.08256322      -0.04894041
Sn      15.89806167      15.65562123      15.65560307       0.03430559       0.02864119      -0.00110223
Sn      27.44323699      15.65422218      15.65528223      -0.04969105       0.02527333       0.03540475
Sn       4.38802407      19.82796149      15.66413991       0.03609303       0.01169879      -0.00746289
Sn      15.91156403      19.82705107      15.64859152       0.01086932      -0.02651166       0.05197523
Sn      27.41991515      19.83313170      15.65566432      -0.01622692      -0.02466349       0.03077522
Sn       4.39776280       3.13102574      20.02128962      -0.10876091       0.03151067       0.01109079
Sn      15.91911785       3.11332724      20.01671382      -0.06203828       0.07562906       0.00445672
Sn      27.43564211       3.14900905      20.04632695      -0.00687353      -0.04904042      -0.07391898
Sn       4.39153854       7.30937667      20.03164130       0.00162451      -0.00334115      -0.04632355
Sn      15.91992716       7.30792861      20.03272851      -0.10255821      -0.02810208      -0.02125925
Sn      27.42791556       7.31001993      20.01428333       0.05430790      -0.01354082       0.00543940
Sn       4.38774285      11.47365914      20.01157807      -0.01302920       0.00112412       0.04342805
Sn      15.89066035      11.47465056      20.02082820       0.07255737       0.03923696       0.02736845
Sn      27.42436820      11.48444421      20.02534825      -0.04023767      -0.04404478       0.00260891
Sn       4.38846587      15.64382471      20.03223772       0.03302828       0.01818899      -0.00134186
Sn      15.90615818      15.64863808      20.02160248      -0.04448140      -0.00082755       0.01842047
Sn      27.41599038      15.64766924      20.01784244       0.09297215       0.03600560       0.00317356
Sn       4.38816161      19.83362266      20.02753814       0.06445454      -0.04242329      -0.04352261
Sn      15.92264378      19.83918241      20.04303124      -0.00773450      -0.07328813      -0.05545459
Sn      27.42890941      19.83249617      20.01859287      -0.01118008      -0.00507588      -0.00846332
Sn      10.15736585       3.12414739       3.94791029       0.01404583       0.04518544       0.07446999
Sn      21.68051035       3.11821674       3.96700337      -0.08737242       0.00118616      -0.03211161
Sn      33.17258522       3.14197523       3.97524435       0.04501657      -0.03363651      -0.03250224
Sn      10.15439747       7.31726134       3.96268822      -0.00775587      -0.02446249       0.00079844
Sn      21.68758886       7.31225935       3.95360933      -0.07558978      -0.05665569       0.01532217
Sn      33.18208460       7.30327267       3.96011061       0.04771572      -0.02421560       0.03965143
Sn      10.13253430      11.48275548       3.94875732       0.13649070       0.00645767       0.01680268
Sn      21.63999304      11.47544670       3.95505591       0.11775583       0.00657313       0.05082091
Sn      33.17277317      11.44785588       3.95410642       0.03720254       0.16131636       0.02443861
Sn      10.14736928      15.64663444       3.96648829      -0.01825704       0.06251863      -0.04264561
Sn      21.67917372      15.65813965       3.97287879      -0.08024113       0.00254025      -0.01710857
Sn      33.19247980      15.64278737       3.96700600      -0.13950427       0.02679383      -0.09669790
Sn      10.15905727      19.82270551       3.95470858      -0.04988578      -0.03638501      -0.00320879
Sn      21.67055118      19.81224883       3.95173480       0.03861035       0.05645417       0.03759978
Sn      33.17472097      19.83157026       3.96480398       0.01093572      -0.00063499      -0.05032612
Sn      10.15942941       3.12148985       8.31396400      -0.06391148       0.00930533       0.01596240
Sn      21.67048624       3.12272189       8.31768369       0.07308912      -0.02469279       0.00490675
Sn      33.16282089       3.13361702       8.33913163       0.09983818       0.01716591      -0.04616918
Sn      10.13881281       7.31501473       8.32312474       0.04182207      -0.04025322       0.01931588
Sn      21.64759297       7.29585043       8.31415406       0.08117378       0.03418524       0.04192607
Sn      33.17822326       7.30899284       8.34220796       0.01296490      -0.00434627      -0.02756222
Sn      10.13479424      11.47403906       8.31475892       0.09853338       0.01640993       0.00427255
Sn      21.65256732      11.47984131       8.32373353       0.06426642      -0.00620845       0.03225434
Sn      33.16325051      11.47906834       8.31166477       0.17177096      -0.02388582       0.05925456
Sn      10.14922397      15.66567094       8.32834941       0.00015076      -0.03589395       0.02050711
Sn      21.66702229      15.64768832       8.32438741      -0.04621302       0.06188758      -0.01346789
Sn      33.18702108      15.65761764       8.32272654      -0.01115024      -0.02122314       0.00878256
Sn      10.15127946      19.81389950       8.31637536       0.02551237       0.03431664       0.05611612
Sn      21.67232271      19.83548544       8.32465472      -0.04252763      -0.01440361      -0.01331035
Sn      33.19617819      19.83214531       8.32138745      -0.04901312      -0.01333680       0.00322449
Sn      10.13690817       3.14509589      12.69252578       0.05470471      -0.05236922      -0.07206181
Sn      21.68323023       3.15237703      12.67195321      -0.00441788      -0.05497091       0.04097589
Sn      33.16854520       3.10207656      12.69400623       0.06669591       0.09728741       0.00688078
Sn      10.15567052       7.30577549      12.67256128      -0.03313063      -0.04663601       0.03980075
Sn      21.66435678       7.30664475      12.69264987       0.05316445      -0.01511276      -0.04964134
Sn      33.18411841       7.31143571      12.68358130       0.02679230      -0.01237871       0.04790939
Sn      10.16092052      11.48520414      12.67295328       0.00941395      -0.03447677      -0.00462993
Sn      21.67913932      11.49114255      12.68947736       0.01436426      -0.03080853       0.03088983
Sn      33.18419571      11.49547295      12.66848948      -0.06042649      -0.05584710       0.05603424
Sn      10.16151794      15.64821391      12.69577438      -0.03534966      -0.00619373      -0.03083914
Sn      21.66645087      15.64054671      12.67985741       0.02023507       0.06706522       0.05301806
Sn      33.19160583      15.65087390      12.67860776      -0.00754721      -0.05353809       0.02643237
Sn      10.14282398      19.83348759      12.70232896      -0.01045660      -0.00515812      -0.09701923
Sn      21.64383828      19.85507196      12.68686007       0.04354079      -0.06808797      -0.01561893
Sn      33.18719078      19.82270250      12.68478746      -0.02631267       0.02405078      -0.00577634
Sn      10.15103083       3.12021760      17.03786968       0.06206473       0.02698107       0.04053723
Sn      21.67709279       3.11518509      17.05033688      -0.02776970       0.06014648       0.01064141
Sn      33.17768337       3.12110148      17.06564581       0.00287926       0.01289761      -0.06055916
Sn      10.13956067       7.29349668      17.04405676       0.06011045       0.03277732      -0.00997423
Sn      21.65756153       7.30486150      17.04748048      -0.01843621      -0.03587678      -0.03276794
Sn      33.18373512       7.30355879      17.03890487       0.03002890      -0.00378840       0.00314840
Sn      10.15553973      11.47776991      17.04097032      -0.00107855      -0.05090749       0.02266156
Sn      21.68004705      11.47767372      17.05684636      -0.08569042       0.01164524      -0.07126826
Sn      33.19365692      11.49176356      17.05283807       0.01009014      -0.01259172      -0.04970943
Sn      10.14909936      15.65233556      17.04348529      -0.00739139      -0.02015188       0.05318706
Sn      21.64357816      15.66016404      17.04837115       0.07761871      -0.00762653      -0.02339893
Sn      33.18964378      15.65180596      17.05257474      -0.04815793      -0.01790754      -0.04945310
Sn      10.13533063      19.81537246      17.02116437       0.00176618       0.06477543       0.12963488
Sn      21.66390362      19.81933986      17.03689267      -0.05178571      -0.01537871       0.05751897
Sn      33.18473506      19.82281004      17.03159558       0.00568175       0.00750018       0.03342446
Sn      10.17455336       3.13033845      21.39619874      -0.09865905       0.03188868       0.02511640
Sn      21.65854876       3.12897713      21.40527791       0.03427861       0.01642361      -0.01134992
Sn      33.19441018       3.12991426      21.42558245      -0.08058825      -0.04389754      -0.03282657
Sn      10.14478147       7.30906206      21.41725017       0.07391225      -0.00949889      -0.03346705
Sn      21.67719864       7.31791642      21.40431025      -0.04512935      -0.04825941       0.00966489
Sn      33.18133364       7.28000347      21.40507027      -0.05681380       0.08005291       0.01511016
Sn      10.16001824      11.48785520      21.40616550      -0.01046700      -0.03111513      -0.00395130
Sn      21.68223851      11.47504678      21.39986897      -0.10744285       0.05320526      -0.00152613
Sn      33.17670692      11.46766218      21.41325432      -0.01712032       0.02845627      -0.03032284
Sn      10.15199051      15.65907577      21.40288666       0.06544782       0.00238050       0.00348818
Sn      21.66466639      15.63119179      21.41079263       0.02366988       0.08267906      -0.01674257
Sn      33.18237695      15.64197070      21.40598379      -0.01693719       0.01622645       0.06529988
Sn      10.14652720      19.84470823      21.39641910       0.01139936      -0.08266646       0.04550068
Sn      21.66856138      19.81615743      21.40145164       0.00213789       0.01300321       0.00034951
Sn      33.18415673      19.82495149      21.40697046      -0.00634843      -0.03917256       0.01680373
Sn       1.36955669       1.03872709       0.40734103       0.02587131       0.05119834      -0.04990281
Sn      12.87931609       1.04268843       0.40211268       0.00659376       0.03026910      -0.02858177
Sn      24.40078231       1.05010626       0.40166921      -0.00461910       0.02272002      -0.02865549
Sn       1.37091977       5.21449940       0.38781185      -0.00526942       0.00045133       0.01558324
Sn      12.86809450       5.20104602       0.41612683       0.08555193       0.06090766      -0.06380290
Sn      24.37638457       5.22969036       0.39029087       0.11237224      -0.04017983       0.04328499
Sn       1.37809387       9.36981686       0.39614863      -0.07862961       0.05288898      -0.02857405
Sn      12.89691113       9.39897436       0.39512691      -0.04205707      -0.04683388      -0.02612234
Sn      24.37908253       9.37861738       0.41239104       0.09154823       0.02889663      -0.04157217
Sn       1.36274705      13.56521316       0.40133492      -0.02671502       0.01645683      -0.05167708
Sn      12.86934250      13.57000431       0.39430341       0.09219168       0.00348077       0.05021048
Sn      24.40144933      13.56015090       0.38276840      -0.02868597      -0.00189601       0.02532410
Sn       1.36195574      17.74642832       0.40244016       0.02691564      -0.02216310      -0.05778366
Sn      12.88268019      17.74900186       0.39646362      -0.06601933      -0.03177180       0.03773875
Sn      24.39907507      17.73522288       0.40806574      -0.07993582      -0.02157051      -0.01910310
Sn       1.36914475       1.03809440       4.74471315      -0.01015074       0.03211176       0.05137118
Sn      12.89342050       1.03622333       4.76032409       0.00333095       0.03881903       0.02939302
Sn      24.42203830       1.05167908       4.77571494      -0.11934182      -0.01814297      -0.07742583
Sn       1.36084822       5.22846289       4.75987013       0.02498180      -0.01257276       0.03268522
Sn      12.88603105       5.23796154       4.75681699      -0.07705755      -0.07842384       0.03345401
Sn      24.39870485       5.20872098       4.76848813      -0.03737980       0.04062019      -0.03328919
Sn       1.36062320       9.40206937       4.74310431       0.07684687      -0.05126810       0.07660745
Sn      12.88785727       9.38540533       4.76690862      -0.03266930       0.02239562      -0.03016220
Sn      24.39837671       9.38648888       4.75573785       0.08566617       0.03257831       0.05973401
Sn       1.35772558      13.57430928       4.74911707       0.04423159      -0.01319463       0.05288926
Sn      12.87970010      13.56938380       4.77573839       0.02800645      -0.02667181      -0.09081908
Sn      24.39841932      13.56350630       4.76233979      -0.00698425       0.04606678       0.00674673
Sn       1.34549482      17.72803409       4.75584978       0.06587819       0.02046028       0.04425747
Sn      12.87524119      17.72401221       4.76818123       0.06713121       0.01252251      -0.01080097
Sn      24.40110987      17.74142320       4.75266353       0.04330321      -0.06220256       0.01492863
Sn       1.36702339       1.04880848       9.11805836      -0.04465340      -0.01755285      -0.01447990
Sn      12.88681661       1.03570338       9.12168218      -0.10646596       0.02047576      -0.03904380
Sn      24.40993729       1.05598418       9.13398321      -0.08827667      -0.04402799      -0.08207961
Sn       1.36908515       5.21806926       9.11621943       0.03620468      -0.01398189      -0.01659519
Sn      12.86429604       5.20430413       9.11902677       0.06714143       0.01659517       0.01152853
Sn      24.39742942       5.23187536       9.13385532      -0.01071058       0.00235540      -0.02832857
Sn       1.35936460       9.40002552       9.11593664       0.00838312      -0.00362394      -0.03118968
Sn      12.88919705       9.39990244       9.13312825      -0.04957248      -0.03605111      -0.03335376
Sn      24.39358587       9.40198530       9.10197918      -0.01353485      -0.04255573       0.01346465
Sn       1.37919162      13.56568124       9.12067004      -0.09926776      -0.02814581      -0.02325181
Sn      12.86199652      13.56204475       9.13426212       0.13601988       0.03003236      -0.08905240
Sn      24.39424529      13.57306603       9.12105288       0.00915706      -0.03967751      -0.03578454
Sn       1.37685616      17.74193555       9.11138921      -0.00690450      -0.01010939       0.00974061
Sn      12.88293539      17.75603271       9.12568377       0.00869529      -0.04782384       0.01638788
Sn      24.39734784      17.76257798       9.13229948       0.06898125      -0.07299735      -0.04839567
Sn       1.37439680       1.04683741      13.48911394      -0.05190376       0.03434389      -0.01447296
Sn      12.88999821       1.02183583      13.48576057       0.02675448       0.08802152      -0.00304620
Sn      24.39690425       1.03866622      13.47985683      -0.01417819       0.03108025       0.03235667
Sn       1.35067098       5.19970702      13.49427623       0.05692309       0.05104735      -0.02231380
Sn      12.88699246       5.19362300      13.47604736      -0.02313495       0.02357559       0.02180218
Sn      24.40731782       5.21495298      13.49426125      -0.05510227       0.04018522      -0.00567051
Sn       1.37672698       9.37827515      13.48037796      -0.05433165       0.06574333      -0.00070367
Sn      12.87788999       9.37794988      13.46726846      -0.01887220       0.01321165       0.05515409
Sn      24.39045209       9.38543301      13.48464350      -0.01861919       0.03537332      -0.00071486
Sn       1.37667160      13.57106785      13.48931493      -0.08806914      -0.03369189      -0.01876578
Sn      12.87970471      13.57196141      13.48032745       0.06143315       0.02077894       0.01915184
Sn      24.39409758      13.58490241      13.45850644       0.01740241      -0.06906486       0.08335620
Sn       1.34749642      17.74384754      13.47916138       0.11816062      -0.05207054       0.03831806
Sn      12.86800104      17.72947444      13.47256715       0.09577441       0.02903361       0.02517551
Sn      24.40743567      17.75214465      13.49820683      -0.08271578      -0.04224369      -0.05905171
Sn       1.35033935       1.02999275      17.82855882       0.05854667       0.01994500       0.03906795
Sn      12.89525945       1.04783623      17.84371708      -0.03031605      -0.00545342      -0.03201750
Sn      24.40080859       1.04309620      17.83170366       0.02438233       0.02430237       0.10592061
Sn       1.37136119       5.21589174      17.83091187       0.03687612       0.00666305       0.01048249
Sn      12.88811374       5.21349525      17.84518992      -0.02528325       0.05022113      -0.02790665
Sn      24.39726251       5.22666691      17.84511671      -0.03686190      -0.03368123      -0.00482477
Sn       1.35739246       9.39506230      17.84646197       0.04040601       0.01384228      -0.03130924
Sn      12.88748421       9.40220101      17.83675526      -0.02898267      -0.08005366       0.01598352
Sn      24.40519166       9.37459409      17.84171524       0.00427740       0.07514736       0.00972412
Sn       1.36348287      13.58040986      17.84135173       0.03987821      -0.05338688      -0.00071677
Sn      12.88845077      13.54831362      17.83939750      -0.04184930       0.07109671      -0.01913231
Sn      24.39004871      13.59068652      17.83624712       0.02028062      -0.06469990       0.02534174
Sn       1.36696226      17.74128630      17.82702030      -0.02095488      -0.01576104       0.05847967
Sn      12.87711053      17.74406821      17.84377231       0.02631921      -0.01064133      -0.01631063
Sn      24.37550820      17.73435063      17.85312330       0.07643503       0.04114689       0.00960773
600
Lattice="34.548424260000004 0.0 0.0 0.0 20.870445700000005 0.0 0.0 0.0 21.8055194" Properties=species:S:1:pos:R:3:forces:R:3 mlfcs_configuration_id=9 mlfcs_sampling_method=gaussian pbc="T T T"
Se       4.12200998       1.05463317       0.09549835      -0.08911050      -0.05517030       0.04648453
Se      15.64507847       1.04200878       0.12127705      -0.10865547      -0.00133425      -0.03042992
Se      27.14844364       1.02197808       0.11384737      -0.00159456       0.08416845      -0.04642798
Se       4.11169262       5.21277968       0.09082386       0.07971436       0.02101986       0.04522529
Se      15.64849117       5.21133097       0.12110518      -0.06917224       0.04826944      -0.04226607
Se      27.14409816       5.20726453       0.11855012       0.05046267       0.03321811      -0.06482927
Se       4.11539441       9.38999540       0.09253856      -0.05703932       0.03640651       0.05717043
Se      15.62769294       9.39491808       0.09236302       0.01822500      -0.04967897       0.05243610
Se      27.14301972       9.38642665       0.10601923       0.04516503       0.00142672       0.01293932
Se       4.13092335      13.56172073       0.09844982      -0.04885491       0.02996712       0.04726848
Se      15.65973288      13.56038841       0.10344824      -0.16174492       0.02093832      -0.00066737
Se      27.14483213      13.56195257       0.10613237      -0.01191452       0.02265658      -0.01262209
Se       4.12533572      17.74284928       0.11612578      -0.02535430       0.02509327      -0.01911804
Se      15.64270946      17.74089492       0.10911794      -0.07402498      -0.01808023       0.00636762
Se      27.15949796      17.72769730       0.13033694      -0.03776969       0.05144130      -0.10565928
Se       4.11100190       1.03894319       4.45433969       0.01482402       0.01930133       0.04928006
Se      15.62044767       1.05219318       4.48916064       0.07159188      -0.03581694      -0.10777101
Se      27.14273819       1.04592600       4.46866037       0.02411385      -0.01080291      -0.02899081
Se       4.12613020       5.23872912       4.48166844      -0.00868478      -0.08336012      -0.02492324
Se      15.62988258       5.22182966       4.47273928      -0.01745774      -0.03251634      -0.01755426
Se      27.14820969       5.20558262       4.45847094      -0.00914468       0.05113814       0.06218677
Se       4.12760928       9.40314420       4.46438303      -0.08648318      -0.03938883       0.01499203
Se      15.63487973       9.40260376       4.44941602      -0.10296908      -0.07712797       0.12161753
Se      27.14394707       9.41080983       4.46945178       0.07259372      -0.11133550      -0.03108273
Se       4.10483559      13.56589308       4.47667306       0.06445569       0.01855534      -0.08069904
Se      15.60680385      13.56648312       4.46273456       0.17750407      -0.01794725       0.00058371
Se      27.13199061      13.56553953       4.46509390       0.03538400      -0.00940490      -0.01712232
Se       4.11588685      17.73532679       4.45624533      -0.00020093       0.00795621       0.04226365
Se      15.61772115      17.73190250       4.47505123       0.08197592       0.03289821      -0.07554452
Se      27.15074130      17.73811767       4.45606102      -0.01278776       0.00752342      -0.00071834
Se       4.11238861       1.04982441       8.83261042       0.04756754      -0.06845748      -0.01528554
Se      15.62749719       1.01633882       8.82081411      -0.01598225       0.16203802       0.02845024
Se      27.14358365       1.03338178       8.82343083       0.03667858       0.02823054       0.04955724
Se       4.12429326       5.21616901       8.83745954      -0.03498563      -0.03526140      -0.05421705
Se      15.61718545       5.21349134       8.80817236       0.07806899      -0.01042636       0.08650724
Se      27.14414482       5.20608540       8.84037511       0.08085541       0.12407190      -0.01411835
Se       4.12022487       9.40077941       8.82326911       0.01431538      -0.04821022       0.00724135
Se      15.62207199       9.38011549       8.83021698       0.09403525       0.04669281       0.02385110
Se      27.16651221       9.39475494       8.82381491      -0.06263392      -0.05868715       0.00770575
Se       4.11424005      13.56440726       8.84782901      -0.01896961       0.02971415      -0.12169721
Se      15.64460526      13.56731985       8.82865990      -0.06060042       0.01273182      -0.01702229
Se      27.15140413      13.56966302       8.82343060       0.03806405       0.00099308       0.05160249
Se       4.10768697      17.74913160       8.82778241       0.07413376      -0.05438136       0.02193280
Se      15.64175645      17.75527099       8.83276873      -0.05782576      -0.09857524       0.01660285
Se      27.15199608      17.77081183       8.82963279      -0.09224472      -0.15613025       0.03708189
Se       4.10522229       1.03964059      13.20418331       0.02606620       0.01568437      -0.11619244
Se      15.61932750       1.03492824      13.19973073       0.06429708       0.04536022      -0.06001131
Se      27.14569439       1.04135038      13.19940019       0.03127964       0.01621930      -0.01998693
Se       4.10895954       5.20185595      13.17477760       0.02256777       0.05526518       0.06285576
Se      15.63808698       5.21913330      13.18174080       0.01077538      -0.01397424       0.00395489
Se      27.13682268       5.21383625      13.19983164       0.04417923       0.01642727      -0.08831554
Se       4.10776958       9.38400428      13.17676125       0.04383113       0.01886360       0.07130510
Se      15.62859505       9.39401191      13.20981816       0.04994209      -0.04817923      -0.07595755
Se      27.15058841       9.39009434      13.19729583      -0.00683331       0.00107618      -0.05244420
Se       4.12308991      13.55894365      13.21168706       0.01809539       0.02616036      -0.10224495
Se      15.63202534      13.56708401      13.19417995       0.02126127       0.00051834       0.01944502
Se      27.15186932      13.57997424      13.18276738       0.00880882      -0.04721368      -0.01809066
Se       4.12396158      17.74045508      13.19849370      -0.04374386      -0.01519505      -0.07339159
Se      15.63011932      17.73530525      13.19598720      -0.01844411       0.03478848      -0.02291570
Se      27.15199053      17.73060646      13.20212259       0.06211189       0.00720158      -0.02475457
Se       4.12345285       1.04171080      17.54508803       0.03927223       0.01901056       0.03811647
Se      15.63591048       1.04905769      17.53382959      -0.01708913      -0.01261328       0.07325726
Se      27.15216740       1.04897839      17.52624586      -0.02723334      -0.06014182       0.10302885
Se       4.11808965       5.22348807      17.55557913      -0.04689807      -0.04415031      -0.01820715
Se      15.64029366       5.21326631      17.53937128      -0.07158773       0.01765267       0.06330873
Se      27.13041315       5.22746421      17.55680100       0.12207088      -0.08594320       0.04661404
Se       4.12781264       9.38337971      17.55780871      -0.06209466       0.01120007      -0.04885873
Se      15.61724237       9.38193618      17.55103012       0.03335452       0.01949509      -0.01449552
Se      27.15504267       9.40742124      17.54736970      -0.00107804      -0.06859592       0.01258934
Se       4.10747026      13.55554877      17.54289188       0.01141651       0.00854613       0.03989405
Se      15.65447944      13.57228899      17.56089566      -0.12473756      -0.01746186      -0.04560162
Se      27.14602074      13.56470377      17.55676299      -0.01568081      -0.00025785      -0.02629699
Se       4.11106977      17.73589632      17.54302330      -0.01340091       0.02834298       0.03036307
Se      15.62779425      17.73929918      17.54155324      -0.01554123      -0.03232155       0.01185696
Se      27.15127038      17.74165522      17.54797786      -0.00290318       0.01124748      -0.01510980
Se       7.39073932       3.13054704       4.24969272       0.07002626      -0.03547283      -0.00186188
Se      18.91562128       3.14047868       4.24221236      -0.04381807      -0.02521471       0.02162755
Se      30.45303162       3.12877217       4.25886016      -0.13631961       0.03831457       0.00126137
Se       7.39148642       7.31500866       4.25348550      -0.02424653      -0.01266229      -0.00243864
Se      18.91121416       7.29783140       4.25205684       0.03588028       0.01721086       0.03534631
Se      30.43548023       7.30531466       4.25434317      -0.00401911      -0.00720860      -0.01062120
Se       7.39189971      11.46998395       4.25013302       0.00410857       0.02590459      -0.00805335
Se      18.91975810      11.48429829       4.26271221      -0.04232894      -0.01175519      -0.00137265
Se      30.43128209      11.48151131       4.25305726       0.01176218      -0.03978506      -0.00889555
Se       7.38159094      15.64960556       4.25098850       0.10659863      -0.00081991       0.00427318
Se      18.90476489      15.64609089       4.25609268       0.05287319       0.03880880      -0.00505025
Se      30.41996429      15.64465697       4.27022078       0.08894963       0.05604940      -0.07430684
Se       7.38298686      19.82402215       4.24307867       0.09846413       0.00075654       0.04256772
Se      18.90763897      19.82387660       4.24486600       0.05614775       0.05056974       0.06112639
Se      30.43703607      19.83936547       4.26315855      -0.02594213      -0.03208888      -0.03766333
Se       7.40926005       3.11570005       8.61341493      -0.02212703       0.03845854       0.01275779
Se      18.91982955       3.13820932       8.63337917      -0.01194963      -0.05841406      -0.05417550
Se      30.44198716       3.13846229       8.64218160      -0.01275098      -0.01568612      -0.10082060
Se       7.39997701       7.30069596       8.61761922       0.01503543       0.00971630      -0.00877122
Se      18.90600481       7.30426289       8.59857712      -0.04615599      -0.01927348       0.07457544
Se      30.42600157       7.30243321       8.62534200       0.06344286       0.00849910      -0.08385632
Se       7.41012483      11.46803952       8.63660598      -0.08776414       0.05183102      -0.08291385
Se      18.91663908      11.48007614       8.59966871      -0.03630064       0.01769406       0.09275783
Se      30.42509619      11.48817393       8.61754343       0.05884645      -0.02822417       0.01355672
Se       7.40009207      15.65403655       8.60141360       0.00360292       0.03591512       0.07185103
Se      18.91418926      15.66584813       8.62671272      -0.03350098      -0.06519436      -0.05330253
Se      30.43004477      15.66740152       8.60325466       0.02007237      -0.02509219       0.08124089
Se       7.38929694      19.84449019       8.62162538       0.06924237      -0.11638589      -0.05477758
Se      18.91226647      19.82530078       8.60777933       0.08472991       0.05546681       0.02236143
Se      30.43406269      19.82782785       8.61604449       0.00842041      -0.00148132       0.01355314
Se       7.38741636       3.13214497      12.97165441       0.06779016      -0.00696184       0.01649335
Se      18.90529557       3.14216483      12.99864674       0.05493276      -0.02899423      -0.11973257
Se      30.45072296       3.13599864      12.97429367      -0.10892806       0.00204636      -0.04883547
Se       7.39831037       7.30764257      12.97274705      -0.04439626      -0.03337028       0.04204854
Se      18.92834344       7.28322927      12.97399227      -0.06260984       0.11229313       0.00260728
Se      30.43930748       7.29513495      12.97454804      -0.04810913       0.03887400       0.02942209
Se       7.40495036      11.49285838      12.96401014      -0.02584426      -0.07330746       0.03369570
Se      18.90147460      11.46821539      12.96157417       0.08853482       0.03064715       0.08710311
Se      30.41663298      11.46794908      12.98928446       0.04530599       0.06420898      -0.06380136
Se       7.39589315      15.65207858      12.96739488       0.06777546       0.02242150       0.02342659
Se      18.92149071      15.67052247      12.96807323      -0.04184200      -0.08357463       0.02013954
Se      30.44854424      15.65540907      12.97711816      -0.10190500      -0.00816152      -0.00433942
Se       7.40301516      19.82975923      12.99552057       0.07029681      -0.00512829      -0.12313362
Se      18.92035755      19.83126504      12.97273453      -0.01020197      -0.00407842       0.04698787
Se      30.43968753      19.81628550      12.97803956      -0.02853863       0.08726833      -0.01959135
Se       7.42784676       3.10445551      17.34038487      -0.11284227       0.10663681      -0.03488345
Se      18.91787157       3.12721652      17.33600821       0.01419183       0.05034500      -0.00550128
Se      30.43221086       3.12697738      17.34027320      -0.04933915       0.03228329       0.02039573
Se       7.39413781       7.32381048      17.33553327      -0.02488693      -0.09341386       0.02914325
Se      18.92085146       7.29689619      17.34738483      -0.01987278       0.04868897      -0.07136833
Se      30.43863144       7.30777915      17.32778005      -0.07708753      -0.02371762       0.04926206
Se       7.39148989      11.49453742      17.33041867       0.01160147      -0.10438666       0.07912227
Se      18.92156436      11.46822898      17.34813724       0.01453590       0.04761372      -0.07089052
Se      30.42443279      11.46804381      17.33092998       0.03330339       0.02654109      -0.00286498
Se       7.39347590      15.65581156      17.33874724       0.06134639      -0.02364438      -0.00101697
Se      18.90420378      15.65148536      17.32661839       0.09057190      -0.01207609      -0.01124175
Se      30.43773233      15.66003386      17.33781393      -0.00666204      -0.02918055       0.00675550
Se       7.40173046      19.84337521      17.33647737      -0.05220119      -0.10772801      -0.02415602
Se      18.90571276      19.83164592      17.32672687       0.06058113       0.01252773       0.02392989
Se      30.42919107      19.81986407      17.33103521      -0.00119971       0.02289744       0.03495794
Se       7.39651305       3.13849632      21.71021397      -0.02555620      -0.01660103      -0.03320184
Se      18.92441740       3.13286095      21.69658012      -0.06714543      -0.01312972       0.02032735
Se      30.40771851       3.13317402      21.67636397       0.10660442      -0.03954322       0.08245434
Se       7.37978025       7.30196987      21.70180306       0.12707841      -0.01709903      -0.01462510
Se      18.91064449       7.31894186      21.70377830       0.04490523      -0.04880855      -0.01866328
Se      30.42880268       7.31744965      21.71480842      -0.02828342      -0.03021064      -0.03736395
Se       7.40413951      11.46992311      21.69365458      -0.02577186       0.03169921       0.01497613
Se      18.90068795      11.47725152      21.68865687       0.10202101      -0.01696633       0.04111686
Se      30.42800601      11.48028169      21.67932020       0.02405570       0.00645524       0.05742040
Se       7.38637651      15.64669635      21.69863201       0.05146870       0.06220070       0.01952846
Se      18.91021643      15.64905965      21.69209541       0.05561160       0.03470918       0.05226375
Se      30.41680276      15.64641732      21.69702560       0.05144232       0.03450427       0.02220650
Se       7.39591002      19.82697193      21.70334623      -0.03376909      -0.01323789      -0.00121861
Se      18.92197260      19.81951846      21.68339932      -0.04146711       0.06018948       0.09663791
Se      30.44401272      19.82970843      21.68961066      -0.09116432      -0.00209400       0.04307158
Se       1.64372026       3.14017736       2.30319853       0.01324636      -0.02243331      -0.07097699
Se      13.15959073       3.14009412       2.27381074      -0.05552733      -0.04306777       0.02001387
Se      24.67286702       3.12614728       2.28933246      -0.00885697       0.02575406      -0.03934830
Se       1.65705515       7.30608544       2.27652986      -0.04176439      -0.01761265       0.02856891
Se      13.14445025       7.32004435       2.29104470       0.08103242      -0.06802083      -0.02753570
Se      24.67770686       7.30014923       2.28858538      -0.03587864       0.01935196       0.00926585
Se       1.63107361      11.48154767       2.27415806       0.06953983      -0.03839233       0.00350797
Se      13.15349175      11.47124676       2.25333309       0.00740291       0.04546851       0.08051642
Se      24.66975836      11.46868702       2.28380287       0.00273794       0.05806186       0.00823093
Se       1.64096044      15.66944415       2.28895385       0.04783462      -0.09895920      -0.03242336
Se      13.16042576      15.65672097       2.29462485       0.01763181      -0.06593024      -0.04651147
Se      24.67776885      15.65458196       2.29301923      -0.05520620      -0.00812545       0.00453040
Se       1.61667687      19.84674448       2.30180406       0.13161054      -0.05336585      -0.06076861
Se      13.15925599      19.81172390       2.29801027      -0.01454413       0.06623848      -0.06315373
Se      24.66628729      19.83119238       2.27307771       0.00264105      -0.06153205       0.07662482
Se       1.66320728       3.11507524       6.64770050      -0.07649649       0.06431836      -0.04476164
Se      13.13586276       3.12908518       6.64275779       0.14290811       0.00714893       0.05756894
Se      24.68459788       3.12524361       6.65839688      -0.03470654       0.06299279      -0.05475901
Se       1.63070201       7.30076693       6.64439152       0.05900383       0.02702096       0.01353824
Se      13.16204051       7.30727029       6.65423290       0.00501317      -0.02628024      -0.04359232
Se      24.67589436       7.31019970       6.63803200      -0.01161089      -0.01172712       0.00350959
Se       1.64483120      11.49375775       6.63021072      -0.05277396      -0.08839063       0.09237269
Se      13.16197471      11.48444349       6.66162251      -0.06112049      -0.03563209      -0.07662204
Se      24.68048652      11.47867885       6.65131138      -0.04790849       0.01551651       0.02115874
Se       1.63359283      15.64788515       6.63365362       0.03265970       0.00017532       0.08129742
Se      13.17195493      15.65626640       6.63784952      -0.00433638      -0.01996735       0.07832487
Se      24.67593962      15.66335831       6.65693857      -0.02819975       0.00794599      -0.04641462
Se       1.63166682      19.79451558       6.65096451       0.08380633       0.10702558      -0.03008843
Se      13.14821593      19.83207724       6.65651335      -0.04609844      -0.05480010      -0.00958926
Se      24.68436238      19.84330137       6.65937421      -0.11049389      -0.09257802      -0.03915545
Se       1.65843870       3.14328801      11.02277670      -0.04366333      -0.06373527      -0.05416626
Se      13.15667595       3.11660414      11.03293723      -0.05593558       0.03936083      -0.11760426
Se      24.67385558       3.14178449      11.00261178       0.00360044      -0.06406891       0.05276718
Se       1.65058244       7.27913692      11.00401009       0.00809309       0.07078268       0.00058341
Se      13.15610052       7.30821264      11.01883477       0.04588196      -0.01667795      -0.02724344
Se      24.66228462       7.31018623      11.02038119       0.05767814      -0.05233435      -0.03452539
Se       1.66440233      11.48474197      11.00351946      -0.06474802      -0.06361806       0.01850017
Se      13.14436698      11.49596771      11.01548794       0.06705101      -0.05917822       0.00535384
Se      24.67300629      11.46147751      10.99880268      -0.00564945       0.07627356       0.04353051
Se       1.64725641      15.65530316      10.98865121      -0.01184446      -0.05052755       0.10995794
Se      13.16341076      15.63608046      11.02165461      -0.04083141       0.10070952      -0.06457106
Se      24.67531161      15.64713061      11.01801607       0.00384792       0.00431767      -0.03554817
Se       1.64447820      19.83910324      11.00891928      -0.01912482      -0.05591489      -0.00651729
Se      13.15847282      19.82300146      11.01074420      -0.04735975      -0.02507131      -0.02930631
Se      24.69020556      19.82082633      11.01459408      -0.09140982      -0.00331304       0.01424508
Se       1.63213878       3.10883009      15.37129299       0.01623732       0.10204251       0.01359217
Se      13.16078869       3.12839690      15.35425855      -0.00551759       0.03089515       0.08304907
Se      24.67626906       3.13216055      15.36033060       0.01643237      -0.00497409       0.05594876
Se       1.62740830       7.30106267      15.37574770       0.06800576       0.01752484       0.00587639
Se      13.16125118       7.29477818      15.37058766      -0.00364192       0.01972300      -0.00459956
Se      24.68209732       7.29185989      15.36984996      -0.12568165       0.03235838      -0.00825193
Se       1.65433962      11.46492637      15.38077367      -0.10272984      -0.00025300      -0.00493012
Se      13.17327651      11.47545363      15.36578832      -0.10415677       0.01479422       0.01309918
Se      24.68355700      11.47581438      15.34568714      -0.02434741       0.02727183       0.04156077
Se       1.63995527      15.65646887      15.37661924      -0.03371929      -0.01073385      -0.03901384
Se      13.14827834      15.64906682      15.37898748       0.07529077       0.03917245      -0.02773708
Se      24.67262606      15.63647745      15.38159478      -0.01117829       0.05491712      -0.02497554
Se       1.63880210      19.83676616      15.35526384       0.01324917      -0.05925346       0.01867622
Se      13.15587476      19.83095133      15.36834696       0.06986018      -0.02611630       0.03756894
Se      24.66139599      19.80198594      15.38445106       0.09785132       0.15662946       0.02265440
Se       1.64342359       3.14116542      19.73960898      -0.01725164      -0.01227699      -0.04127648
Se      13.16305310       3.12628404      19.73521995      -0.06169481       0.02287196       0.00516981
Se      24.68755142       3.13032752      19.74933929      -0.02284232      -0.01682611      -0.06520949
Se       1.62594899       7.28751746      19.74020304       0.06370225       0.05500311      -0.03438146
Se      13.14889720       7.32401992      19.74369570       0.03063465      -0.11868207      -0.06270546
Se      24.68910177       7.31243091      19.72110645      -0.04082659      -0.02830483       0.03758140
Se       1.62434980      11.49262864      19.71532660       0.08016817      -0.03996899       0.06336643
Se      13.17293349      11.48437184      19.72955976      -0.12449373      -0.00620841       0.01099361
Se      24.67764653      11.48232860      19.72829818      -0.02724125      -0.03691044      -0.00319325
Se       1.65520008      15.66567884      19.73187888      -0.04483195      -0.02760028       0.00796851
Se      13.15108469      15.66482437      19.71009668      -0.02142979      -0.08951410       0.06219466
Se      24.67766498      15.65916058      19.72203877      -0.02118980      -0.04093816       0.08287622
Se       1.65068107      19.82559011      19.72486528      -0.03934974       0.03881585       0.02449128
Se      13.16671686      19.81499712      19.73901422       0.02716207       0.06878043      -0.03309857
Se      24.65340259      19.82871101      19.73076072       0.07681120      -0.01601665      -0.02848612
Se       9.86880151       1.04634909       2.07339412       0.04134803       0.02975335       0.00438537
Se      21.40088684       1.04805435       2.07871677      -0.06424074      -0.02167042       0.00830498
Se      32.90939992       1.03773117       2.07117179      -0.02450305       0.04510596       0.05190727
Se       9.87668062       5.21480838       2.08530435      -0.01129382       0.00489038      -0.01857551
Se      21.39127439       5.22030164       2.06016298      -0.00804265       0.03154682       0.07278717
Se      32.91591361       5.21073024       2.06376329      -0.09278303       0.05462929       0.05899039
Se       9.89066032       9.39760733       2.08396078      -0.11391544      -0.04034231      -0.04004952
Se      21.39488485       9.38969961       2.07139378      -0.04597758       0.00561135       0.01007526
Se      32.91427241       9.40195631       2.07350799      -0.03516588      -0.03068174      -0.01731950
Se       9.89492389      13.56274707       2.06024974      -0.06872105       0.01822685       0.07247224
Se      21.37312466      13.54784251       2.07005171       0.10925164       0.08747733       0.04695249
Se      32.90416112      13.57154626       2.07390374      -0.01025401      -0.01468440      -0.01288162
Se       9.88263218      17.73925833       2.07432504      -0.08775796       0.00277566       0.04458206
Se      21.38456474      17.75303528       2.05887498       0.05005729      -0.03981082       0.07540500
Se      32.90949441      17.73699289       2.08200737      -0.06638316      -0.01543624      -0.06099397
Se       9.87399017       1.04253928       6.43262731       0.07368419      -0.00974199       0.00668842
Se      21.40427245       1.04247690       6.45499022      -0.07764005       0.02446543      -0.09328401
Se      32.90920378       1.04267044       6.43384043       0.03417466       0.01380503       0.06613692
Se       9.87984093       5.21065804       6.43675113      -0.02361461      -0.00904584      -0.02412129
Se      21.39042126       5.21979446       6.43879401       0.02873374      -0.02357842       0.01284472
Se      32.91050125       5.21749103       6.45098314      -0.00947416       0.02098817      -0.03151348
Se       9.87842415       9.41669098       6.43579222      -0.09084907      -0.13613517      -0.01296794
Se      21.39992902       9.38337063       6.44930160      -0.01420790       0.06228030      -0.05565978
Se      32.89943847       9.39518990       6.43264943       0.02751800      -0.02817434       0.00729759
Se       9.87871854      13.56237230       6.42740118      -0.08279542       0.04459723       0.01498929
Se      21.38762396      13.58013606       6.43996647      -0.04435004      -0.04197464      -0.05551013
Se      32.89359280      13.57567409       6.42637856       0.06954514      -0.06167070       0.02541273
Se       9.88163206      17.74434105       6.44145681      -0.05869190       0.00029763      -0.02214836
Se      21.40887178      17.73052299       6.44140165      -0.12705381       0.05787873      -0.07782453
Se      32.91907719      17.73237598       6.42783617      -0.04196917       0.03906335       0.03672168
Se       9.87132659       1.04570017      10.78229282       0.05311403      -0.02939062       0.06749371
Se      21.39585390       1.02836897      10.80933089       0.00224871       0.06125226      -0.05777068
Se      32.91161897       1.06158424      10.80308542       0.02810694      -0.07980613      -0.02508272
Se       9.87115086       5.20855521      10.79878649      -0.01783845       0.03712605      -0.04260063
Se      21.39003738       5.22840337      10.78711140      -0.02550551      -0.04541130       0.02523002
Se      32.92669032       5.22928975      10.79436235      -0.02556225      -0.02725917       0.00292504
Se       9.89217667       9.38279984      10.79845348      -0.05679278       0.03755644       0.01366548
Se      21.37757517       9.40909681      10.77992372       0.05958651      -0.03909507       0.07773428
Se      32.89207689       9.38428399      10.80962082       0.07685336       0.04123109      -0.02381528
Se       9.88374691      13.56594076      10.80658685      -0.02894651       0.03335867      -0.03627922
Se      21.38918575      13.56894455      10.81291484      -0.03094405      -0.01569866      -0.05107382
Se      32.90401512      13.55705653      10.80110130      -0.05306903       0.01000574      -0.00765409
Se       9.88160121      17.73991388      10.80643140      -0.02822506       0.00417165      -0.02986278
Se      21.38832729      17.74008486      10.80014333       0.05970630       0.04068829      -0.03888162
Se      32.90935492      17.75494211      10.80009315      -0.06945653      -0.08153292      -0.00895517
Se       9.87115944       1.04773266      15.16758997      -0.00850981       0.01123569      -0.01910626
Se      21.39808224       1.04964091      15.14252096      -0.04005923      -0.00614425       0.06700251
Se      32.88155618       1.05520548      15.16189004       0.09747968      -0.05319011      -0.01064100
Se       9.87398269       5.22348511      15.17677456      -0.00618348      -0.02104245      -0.06029427
Se      21.40447520       5.22616418      15.14863421      -0.05038989      -0.03197905       0.04420836
Se      32.89891340       5.19267793      15.16383660       0.01555929       0.11024339      -0.01400917
Se       9.88528474       9.40253290      15.16425577      -0.03316213      -0.03877582      -0.02081371
Se      21.38879922       9.38498834      15.14924782       0.00574595       0.05050739       0.03351850
Se      32.90484706       9.38085286      15.17506100       0.04153771       0.11045866      -0.08419904
Se       9.86117475      13.56274973      15.13813928       0.12644836       0.03524378       0.09095598
Se      21.39330543      13.56469642      15.15393356       0.01334385       0.01362185      -0.02454628
Se      32.89715347      13.56474488      15.15205686       0.02520292       0.00894136       0.02570145
Se       9.87282979      17.75838370      15.15922324       0.06113044      -0.12004958      -0.00710008
Se      21.39566856      17.73416475      15.14965711      -0.04770268       0.03879651       0.06355223
Se      32.90625173      17.76384866      15.15462719       0.00819874      -0.08250918      -0.01082313
Se       9.87781284       1.03416885      19.49105262       0.06945598       0.04050510       0.13072230
Se      21.38244157       1.06625993      19.52455925       0.09336973      -0.06905510      -0.07359544
Se      32.92289055       1.03897562      19.49503703      -0.06134489       0.00666058       0.08797510
Se       9.86311137       5.22051223      19.52098148       0.01473650       0.02322945      -0.01071494
Se      21.39023565       5.21123949      19.52800250       0.06308268       0.04926254      -0.02643244
Se      32.90146784       5.21962015      19.52055863      -0.01858804      -0.00875264       0.01004314
Se       9.87051344       9.38181816      19.51433204       0.04708918       0.02991666       0.00402851
Se      21.40907610       9.40175560      19.52880923      -0.04257957      -0.07255425      -0.01803949
Se      32.89861667       9.37625423      19.52957029       0.06255647       0.07833032      -0.06115177
Se       9.88324614      13.56609275      19.51489995      -0.01943252      -0.01117356      -0.02518947
Se      21.37570044      13.57339426      19.53046670       0.11191990      -0.03859774      -0.02399292
Se      32.89969038      13.55709426      19.53101596       0.07125962       0.01586040      -0.06193886
Se       9.86777982      17.75660000      19.51751483       0.02109744      -0.08222424       0.00335316
Se      21.38647427      17.73926048      19.51473903       0.06681004       0.01224269      -0.00432659
Se      32.91774343      17.74766750      19.52948641      -0.06031583      -0.03414452      -0.04628768
Sn       7.12604863       1.03788929       1.78146336      -0.03704979       0.01703164       0.00510579
Sn      18.63608788       1.05711880       1.79157673       0.07680046      -0.06349906      -0.07800452
Sn      30.15557104       1.03318809       1.79696239       0.04479209       0.05634539      -0.06492768
Sn       7.12557027       5.21524030       1.79705052       0.01566473       0.01091502      -0.02144193
Sn      18.63524536       5.21335271       1.77924641       0.03145776       0.03534082      -0.01033027
Sn      30.14332058       5.21969933       1.77393055       0.11147059      -0.03083190      -0.00479119
Sn       7.11849621       9.38358676       1.77568330       0.06970997       0.01363621      -0.00008877
Sn      18.63195571       9.39310326       1.77999807       0.02586942       0.02781640      -0.00951515
Sn      30.15696635       9.41416900       1.77999839      -0.00270317      -0.02350738       0.01262878
Sn       7.13025291      13.57190775       1.78092543       0.06935740      -0.02499975      -0.01442336
Sn      18.64308284      13.56492724       1.78357958      -0.07069279      -0.01199685      -0.05475095
Sn      30.15062110      13.55977815       1.78172322       0.02224090       0.01913151      -0.00893817
Sn       7.10448440      17.75377013       1.80316258       0.15632618      -0.04477572      -0.06311118
Sn      18.64204835      17.74546409       1.79236457      -0.00963300      -0.01743315      -0.08203502
Sn      30.14323957      17.74809218       1.77728960       0.05621213      -0.04461338      -0.01061935
Sn       7.14711067       1.04057024       6.15173970      -0.11863297       0.00345516      -0.02144523
Sn      18.63856072       1.06441977       6.13753437       0.04352576      -0.09845484       0.00266821
Sn      30.16813716       1.04871962       6.14670098      -0.04525717      -0.00477578       0.02914470
Sn       7.12649351       5.20987185       6.11679731      -0.00803778       0.00294843       0.09018303
Sn      18.65108877       5.21165359       6.15435388      -0.01561020       0.05140408      -0.03158783
Sn      30.16000325       5.22854455       6.15067680       0.01644784      -0.03085899      -0.01603609
Sn       7.09955648       9.39678007       6.13922112       0.08704575       0.00371172       0.02748553
Sn      18.65199496       9.39654319       6.14868757      -0.01456755      -0.02367978      -0.00716432
Sn      30.15376384       9.38150506       6.13832901      -0.01816183       0.04841335       0.01211245
Sn       7.10620451      13.55881682       6.12801629       0.06821813       0.00880538       0.03227884
Sn      18.62596744      13.56588505       6.14799837       0.04199277      -0.01214532       0.00746372
Sn      30.15616834      13.55973235       6.13318380      -0.06679428       0.01658545       0.05412727
Sn       7.12103150      17.73058717       6.14202957       0.04406004       0.02174345      -0.01470513
Sn      18.62512953      17.74582257       6.13698757       0.09384564       0.01936354       0.00351132
Sn      30.16024884      17.74768162       6.14593659       0.01210386      -0.02789757       0.00965079
Sn       7.13219470       1.02178645      10.49883319      -0.06220466       0.09348311       0.04715393
Sn      18.65137562       1.04754513      10.52224639      -0.03797059      -0.06305802      -0.04012535
Sn      30.17353008       1.04544876      10.50124197      -0.06690685      -0.02725001       0.02599296
Sn       7.11461905       5.21178389      10.49967929       0.02848069      -0.01413375      -0.02934581
Sn      18.63441236       5.20735860      10.50777752       0.02678115       0.06392295       0.00441117
Sn      30.17345267       5.22587455      10.50053756      -0.01824178       0.00479980       0.07335139
Sn       7.13434372       9.39409763      10.50335471       0.04575106      -0.05171934       0.03287467
Sn      18.63931362       9.38863172      10.51027242      -0.00535600       0.03249228      -0.04556335
Sn      30.15788297       9.38334689      10.49599324      -0.04760438       0.05032915       0.02040636
Sn       7.12726247      13.56900677      10.50063043       0.02523433       0.02579459       0.01125551
Sn      18.62902480      13.57722991      10.51414780       0.04667866      -0.05948145      -0.03749794
Sn      30.13661251      13.57811609      10.50167200       0.08324191      -0.00004350      -0.05695997
Sn       7.12610330      17.75019163      10.52028714       0.03866048      -0.05086459      -0.05031196
Sn      18.65037351      17.74121970      10.49000535      -0.07470360       0.06710792       0.05420362
Sn      30.13622395      17.74759099      10.51718206       0.10297992      -0.01091335      -0.06660784
Sn       7.11605698       1.03975504      14.85929298       0.02022494       0.04265226       0.02176364
Sn      18.63450585       1.05320245      14.86704937       0.04979255      -0.04297517      -0.00247322
Sn      30.15419449       1.06902804      14.85052143      -0.04897637      -0.07678097       0.03955049
Sn       7.12968254       5.20605220      14.86329127      -0.01294383       0.01873672      -0.00607875
Sn      18.64183124       5.22498794      14.86225382       0.02920058      -0.01334545       0.05006229
Sn      30.15281679       5.21375113      14.85406611      -0.01566069       0.03375971       0.04220008
Sn       7.13052653       9.39344446      14.86921732       0.01494792       0.02757285      -0.01082107
Sn      18.63964942       9.38870234      14.87662164       0.00961977       0.01286927      -0.06812404
Sn      30.16670414       9.40477912      14.86859158      -0.08202000      -0.10176267       0.01773654
Sn       7.13773007      13.56055943      14.86285712      -0.11545688       0.02945423       0.00815049
Sn      18.65229586      13.57315447      14.86196113      -0.03887293      -0.04117586      -0.04167661
Sn      30.14602369      13.56268062      14.85801695      -0.00907761       0.02260962       0.02203101
Sn       7.14144847      17.74640981      14.85720641      -0.09836487      -0.05762367       0.03430354
Sn      18.62989494      17.73102627      14.85927738       0.07312540       0.06239092      -0.00761278
Sn      30.15481927      17.74995486      14.85520047       0.01174954      -0.02973605       0.06105399
Sn       7.14709880       1.03301984      19.21187904      -0.08999796       0.01238491       0.08595542
Sn      18.65722790       1.05566539      19.22414603      -0.12946721      -0.03018192       0.01651916
Sn      30.16029960       1.04651853      19.22733664       0.05227082      -0.03367815      -0.02015864
Sn       7.11123864       5.19172231      19.21752226       0.00701197       0.06011091      -0.01934439
Sn      18.65850640       5.23509611      19.22335115      -0.08505687      -0.09090894       0.04494514
Sn      30.14690663       5.21932319      19.23035933       0.06370037       0.00763208      -0.02977711
Sn       7.13021063       9.36536083      19.25754708      -0.04323514       0.10474073      -0.08946746
Sn      18.65166960       9.38865248      19.21878474       0.02100789       0.02982639       0.08074500
Sn      30.16635933       9.39558506      19.22689099      -0.07122409      -0.04702518      -0.00338462
Sn       7.12878678      13.56359306      19.22998814      -0.01942810       0.01373854      -0.02001406
Sn      18.64760848      13.56815343      19.22887874      -0.08216109      -0.01056380       0.01906663
Sn      30.17041487      13.54874919      19.21799069      -0.09069357       0.06477694       0.01162225
Sn       7.12446904      17.73151072      19.22200919      -0.02611682       0.03537785      -0.00285231
Sn      18.65322227      17.73731969      19.20767741      -0.08800157       0.00064787       0.05148734
Sn      30.15225285      17.73939053      19.22636641       0.03956267       0.00488140      -0.02035279
Sn       4.39649862       3.13424129       2.57715433      -0.03541393      -0.00052073       0.00774223
Sn      15.89514927       3.12508602       2.57231483       0.02112793       0.01688769       0.04343655
Sn      27.42037005       3.13640909       2.58258362      -0.01262144      -0.07817729      -0.02930136
Sn       4.39917830       7.29974572       2.59362620       0.02100496       0.04773962      -0.04363206
Sn      15.91380805       7.30470890       2.58457606      -0.07462612       0.00051812      -0.01210778
Sn      27.41646348       7.28249901       2.57247563       0.03994822       0.08061129       0.02193959
Sn       4.39841281      11.47847785       2.57717425      -0.06967664       0.02644539       0.01371749
Sn      15.89860126      11.45811743       2.59279105       0.01367325       0.08593536      -0.09644156
Sn      27.42114214      11.47338031       2.57182613      -0.01009319       0.04840948       0.02310809
Sn       4.40348347      15.66057834       2.56887020      -0.07290302      -0.05249055       0.03556610
Sn      15.91872509      15.65031412       2.57243717      -0.05053587       0.01743050       0.01235550
Sn      27.42028496      15.64393186       2.56533382       0.03554821       0.00273082       0.04286646
Sn       4.39869955      19.82364692       2.58471469      -0.11336490       0.04078879      -0.02459528
Sn      15.90995180      19.83133938       2.55808272      -0.05249470      -0.01756004       0.10374391
Sn      27.41455348      19.83154762       2.56579428       0.01085632       0.01925460       0.04990524
Sn       4.39466889       3.11559036       6.93981091       0.05410702       0.04224866       0.00012190
Sn      15.92317957       3.13724341       6.92113906      -0.13819407      -0.06634540       0.02818166
Sn      27.43170480       3.14771979       6.96761663       0.00155855      -0.10607532      -0.07290127
Sn       4.39568900       7.28994235       6.94399325      -0.04711244       0.02545607       0.01376561
Sn      15.92304000       7.30171567       6.95007756      -0.04720578       0.01865076      -0.06505843
Sn      27.41482505       7.30731008       6.91475068       0.00350306      -0.00624774       0.06634245
Sn       4.38143489      11.47761448       6.93601290       0.05207966       0.05577122       0.02663015
Sn      15.89407349      11.47267913       6.94294302       0.04817600       0.02220757       0.00914874
Sn      27.42235881      11.47828506       6.94696616       0.05699171       0.00330392      -0.05755120
Sn       4.38750662      15.66535661       6.92975376      -0.02763470      -0.08066003       0.05853130
Sn      15.92635969      15.66289522       6.93608649      -0.02403324      -0.02459751       0.04056056
Sn      27.42032790      15.65383218       6.94563318       0.03264619       0.05243859      -0.02424186
Sn       4.40188373      19.81244806       6.94402090      -0.09241748       0.06909050      -0.03240676
Sn      15.88591452      19.82408096       6.95418560       0.09087798      -0.00229856      -0.09611626
Sn      27.40904499      19.80986159       6.94185442       0.11920058       0.08574256      -0.06064984
Sn       4.40481254       3.13275136      11.28170417      -0.00300062      -0.06912084       0.07851666
Sn      15.89024838       3.13047487      11.28895793       0.05162595      -0.05191822       0.05926359
Sn      27.42458795       3.13145736      11.29585278       0.00359982       0.00641217       0.03588829
Sn       4.40908579       7.30949122      11.31286626      -0.04012988      -0.05514882      -0.04862852
Sn      15.91628548       7.30208581      11.29880588      -0.04310223       0.03322923       0.02967601
Sn      27.42024488       7.31039757      11.29424670      -0.02235629      -0.01890407       0.07781297
Sn       4.40818857      11.47021700      11.30289510      -0.00885791       0.05073216      -0.01270640
Sn      15.90478886      11.47316776      11.32247382      -0.02800404       0.01527746      -0.04566651
Sn      27.41883054      11.47462848      11.29410902       0.01023966      -0.02023485       0.04771777
Sn       4.39134865      15.65075177      11.28955782       0.01050601      -0.01687791       0.07507029
Sn      15.90283597      15.65786169      11.31102022       0.02456217      -0.00280736      -0.03229373
Sn      27.42346109      15.65235478      11.29714040      -0.00370983       0.01684889      -0.00064309
Sn       4.38591383      19.81665824      11.28518386       0.01201148       0.05186224       0.11580848
Sn      15.90005520      19.83489450      11.29650618       0.05137933      -0.02009828       0.03465762
Sn      27.41976090      19.82219912      11.31319743       0.06883626       0.02654654      -0.02469898
Sn       4.38165442       3.13226794      15.66116957       0.01031996       0.00151304      -0.03234471
Sn      15.90775893       3.13194091      15.66242588       0.02395421      -0.00745597      -0.04312092
Sn      27.43115130       3.12920484      15.67929800      -0.00979077       0.04569771      -0.09043480
Sn       4.39138304       7.28655188      15.66823733      -0.01818576       0.05115096       0.00614503
Sn      15.91100063       7.30391200      15.65925852      -0.02363441       0.00045886       0.00536075
Sn      27.40207489       7.28411811      15.67832942       0.13704900       0.09566902      -0.08951172
Sn       4.38508322      11.48733189      15.64582390       0.08869000      -0.04990812       0.06041232
Sn      15.89661108      11.48446210      15.66082922       0.08531067      -0.01473215       0.04129038
Sn      27.42859776      11.47753936      15.65977751      -0.02291217       0.02382995      -0.00401528
Sn       4.38413781      15.63982480      15.67588124       0.05110265       0.03439889      -0.05440645
Sn      15.92275275      15.64137780      15.65081344      -0.10815313       0.03341721       0.05641303
Sn      27.41974335      15.65516918      15.66003605       0.02515429      -0.02465742       0.04119734
Sn       4.39593344      19.82536148      15.66070792      -0.04740833      -0.01955036      -0.04492632
Sn      15.93121045      19.82060194      15.67825370      -0.08691420       0.00917317      -0.04819298
Sn      27.43768971      19.83089490      15.64259291      -0.06857863      -0.03244032       0.04424738
Sn       4.39124882       3.12435046      20.02315902       0.03204818       0.00633993      -0.02014139
Sn      15.89645000       3.13705999      20.03280796       0.09620516      -0.02885404      -0.01718704
Sn      27.43492133       3.12567562      20.01236386      -0.02610871      -0.03209863       0.09158111
Sn       4.39445506       7.32114729      20.02365201      -0.05512091      -0.04785125      -0.03458355
Sn      15.91160263       7.30123731      20.01792341      -0.02620582       0.00295795       0.01983154
Sn      27.42980384       7.30252588      20.02699334       0.02930410      -0.00130632       0.01531553
Sn       4.39601331      11.48115086      20.02853666      -0.05545314      -0.02592835      -0.06365988
Sn      15.89854961      11.46853540      20.02253190       0.13695784       0.03550184      -0.02894295
Sn      27.42303547      11.47245246      20.02536811      -0.00607549       0.01497279      -0.02575640
Sn       4.40002042      15.66363995      20.03708073       0.01973613      -0.01264313      -0.04013533
Sn      15.89393165      15.64013484      20.02006166       0.06168779       0.03830941      -0.00187817
Sn      27.42402395      15.64938065      20.01743172       0.04060419      -0.00079717       0.02064136
Sn       4.38789406      19.83068711      20.00966189       0.03856321       0.00289262       0.03403263
Sn      15.93051324      19.82606390      20.03346659      -0.05084435      -0.00405391      -0.01184905
Sn      27.41742103      19.83159746      20.02395902      -0.05206467      -0.05947350       0.02433612
Sn      10.15757704       3.12751094       3.97762157      -0.05320421       0.01021625      -0.04390937
Sn      21.65022982       3.13899115       3.96329313       0.09282567       0.00257917      -0.02047037
Sn      33.17110853       3.14901807       3.98059291       0.10646808      -0.05016811      -0.07139611
Sn      10.12827025       7.30535439       3.96916256       0.07426385       0.00042544      -0.01960657
Sn      21.66956742       7.31874184       3.97518226      -0.05750285      -0.04638281      -0.03635523
Sn      33.18394367       7.32635758       3.97147440      -0.00360567      -0.09619799      -0.06184464
Sn      10.14549481      11.47215221       3.97453935       0.01954846       0.05633347      -0.03125260
Sn      21.65722083      11.47357831       3.95971022       0.04653253       0.00958738       0.01314944
Sn      33.18484833      11.47574111       3.94893623       0.00248118       0.05494652       0.02418244
Sn      10.16062975      15.64772084       3.98230529      -0.09534009       0.00135948      -0.10245662
Sn      21.66819027      15.66443690       3.96841455      -0.06546698      -0.02716299      -0.06227191
Sn      33.19444236      15.65746822       3.96445763      -0.09438288      -0.03350083       0.00423302
Sn      10.15994129      19.85071369       3.95940797      -0.07454461      -0.09718079      -0.02529235
Sn      21.67309964      19.82580152       3.96716653      -0.06637337       0.01449437      -0.03291404
Sn      33.18171338      19.80427654       3.96010407       0.02924963       0.07882361       0.01514380
Sn      10.15900450       3.12184534       8.33241928      -0.01812017       0.03067317      -0.00836838
Sn      21.66698647       3.12758250       8.33226797       0.03247639       0.03744883       0.00239588
Sn      33.18810211       3.13370288       8.33336882       0.00804441      -0.04051539      -0.02539499
Sn      10.15103994       7.28713989       8.31942861      -0.00854978       0.08544266      -0.00008630
Sn      21.64710635       7.31016020       8.33217182       0.06203867      -0.02756335       0.02883136
Sn      33.19070882       7.30847750       8.33288907      -0.04047494       0.00874773      -0.00800254
Sn      10.13324292      11.47660002       8.30906066       0.12167672       0.02432372       0.07144822
Sn      21.66156708      11.49383821       8.33414219       0.01673972      -0.02184261       0.00269651
Sn      33.18791465      11.47585949       8.31327387      -0.06411306       0.02644886       0.01790381
Sn      10.15087923      15.66287159       8.32730853      -0.02423704      -0.04445667      -0.01720233
Sn      21.64929347      15.65281094       8.30407654       0.08756713      -0.01355461       0.09219600
Sn      33.18933363      15.64483475       8.31097860      -0.04495367       0.02997726       0.02943420
Sn      10.15718826      19.83144775       8.32553381      -0.06336717      -0.02079755       0.00512212
Sn      21.68706745      19.83220397       8.31676025      -0.10172605      -0.03972398       0.02872964
Sn      33.18648383      19.82299320       8.33587741      -0.00474106      -0.00627921      -0.04435516
Sn      10.15181873       3.13329664      12.66989001      -0.04317594      -0.03287043       0.06080043
Sn      21.66576389       3.12893475      12.67407156      -0.02877144       0.02414973       0.03538948
Sn      33.17907678       3.13385493      12.68427020       0.10615319       0.02924073       0.03510346
Sn      10.13488796       7.30085438      12.67963345       0.06492639       0.01103400       0.02100399
Sn      21.66708551       7.30444187      12.68019757       0.01968001       0.03381355      -0.02496553
Sn      33.17678516       7.30425877      12.69394346       0.04194484       0.00113923       0.00030583
Sn      10.15179536      11.49190638      12.69564561       0.02290083      -0.06301452      -0.03414591
Sn      21.68011720      11.49136197      12.69994319      -0.11233762      -0.03676340      -0.05689225
Sn      33.16976037      11.48414995      12.69649690       0.00578488      -0.02205917      -0.02873660
Sn      10.16299923      15.64405764      12.69088750      -0.06592423       0.01923091      -0.00984759
Sn      21.66590240      15.67023543      12.67044078       0.05359091      -0.01739446       0.05391195
Sn      33.17359890      15.63365849      12.68575986       0.09614133       0.05300463      -0.02364523
Sn      10.17164736      19.82541055      12.68532403      -0.06969160       0.04207091       0.00553150
Sn      21.67065276      19.82469106      12.68797396      -0.00420559      -0.02842690       0.05407737
Sn      33.18521391      19.81739840      12.68337323       0.02431258       0.03457332       0.01141771
Sn      10.15642828       3.13878317      17.05840259       0.06964307      -0.04179513      -0.03469454
Sn      21.66850473       3.13305527      17.05291943      -0.00513407       0.01584249      -0.07567960
Sn      33.17534409       3.12313962      17.04416960       0.03341840       0.00434282       0.04407034
Sn      10.13625878       7.30765556      17.05590840       0.03002933       0.01836862      -0.01500411
Sn      21.65804994       7.30793804      17.03912627       0.07415692      -0.01607838       0.01119331
Sn      33.17112604       7.32414216      17.03539525       0.05544223      -0.12700081       0.05817457
Sn      10.13621576      11.47982284      17.04810279      -0.01100960       0.00747795      -0.01433089
Sn      21.67182270      11.49768797      17.03764628       0.00752221      -0.08137057       0.03089081
Sn      33.17550743      11.49376374      17.05480881       0.01064576      -0.02249141      -0.01145921
Sn      10.15700977      15.64586614      17.05667646      -0.07211646       0.03153388      -0.07310062
Sn      21.67318220      15.65366020      17.03956830      -0.06697967       0.02376554       0.00769966
Sn      33.18235875      15.66824970      17.03447790      -0.00871703      -0.00435148      -0.00912939
Sn      10.14101096      19.81957594      17.04130937       0.06600865       0.06801441       0.02656225
Sn      21.66499301      19.83543968      17.05003172      -0.03944029      -0.02741840      -0.07644542
Sn      33.18190020      19.82862390      17.05165749      -0.01153169       0.03985873      -0.00757318
Sn      10.13219189       3.14021325      21.39825733       0.03221734      -0.03948773      -0.00099482
Sn      21.66071527       3.13290176      21.40576740       0.06242440       0.02387986       0.08531284
Sn      33.18616110       3.13091569      21.40362813      -0.10296880       0.00043931      -0.00157028
Sn      10.16429654       7.31066720      21.40954263      -0.11124238      -0.02268578       0.01867543
Sn      21.67207557       7.29653325      21.42826917      -0.04990031       0.03916399      -0.04630860
Sn      33.17041542       7.30471824      21.40365719       0.03408427      -0.06323782       0.04483044
Sn      10.14576481      11.47313312      21.39880436       0.01943058      -0.00650676       0.05168638
Sn      21.67703380      11.46562866      21.41635710      -0.10067641       0.04807456      -0.01765427
Sn      33.18777717      11.47386678      21.41184753      -0.02052733      -0.00010346      -0.00061326
Sn      10.14742996      15.64075477      21.39561712      -0.04046070       0.07299896       0.05721699
Sn      21.67170479      15.65780053      21.40894157      -0.08027850      -0.00392821       0.00763537
Sn      33.17737663      15.64986051      21.40326593      -0.02916138       0.01401396       0.03295138
Sn      10.13153951      19.82646650      21.41174601       0.05407174       0.00375798      -0.00077371
Sn      21.66582646      19.84354546      21.39647584      -0.00170614      -0.04491547       0.02659148
Sn      33.17468076      19.82718416      21.40895913       0.07941428       0.03380034       0.00475623
Sn       1.34712064       1.04847982       0.40047382       0.09506163       0.00803184       0.03950229
Sn      12.86108021       1.04128575       0.38990524       0.11021784      -0.04651680       0.04708110
Sn      24.39388233       1.02907183       0.40215254       0.00561841       0.08476826      -0.03858657
Sn       1.38375049       5.21919221       0.37639681      -0.07009288      -0.01214771       0.05990340
Sn      12.88513010       5.21459559       0.38698053       0.03904324       0.04983437       0.04588851
Sn      24.40195180       5.22533963       0.39130572      -0.02977380      -0.06985551       0.03039225
Sn       1.34969539       9.37051440       0.39133380       0.06783955       0.05951766       0.01579683
Sn      12.88071911       9.38547106       0.39115783      -0.01301622      -0.00163890       0.00181875
Sn      24.40409456       9.39525938       0.39998659      -0.03722517      -0.01174559      -0.02365600
Sn       1.37429760      13.55815719       0.38704506       0.01361599       0.04232075       0.03492539
Sn      12.87705081      13.55880723       0.37747776       0.11937008       0.03609230       0.06818628
Sn      24.39295988      13.57576876       0.40599919       0.01164343      -0.04492257      -0.01137501
Sn       1.37138456      17.74012558       0.41247964      -0.01428315       0.04662690      -0.01580242
Sn      12.87167246      17.72916113       0.40923360       0.05800843       0.03826600      -0.01169127
Sn      24.39869161      17.73209762       0.40350990       0.02872897       0.01650153      -0.03050953
Sn       1.36174805       1.03407758       4.75044101       0.00464855      -0.03517267       0.04112224
Sn      12.88548964       1.04451099       4.77426200      -0.03504332      -0.00606453      -0.05212572
Sn      24.39551467       1.03938134       4.77349087       0.02262938       0.06738578      -0.01722913
Sn       1.37598919       5.21799096       4.74348440      -0.01153389      -0.03306237       0.04344358
Sn      12.87415559       5.20600103       4.75945905       0.02781261       0.07095797       0.00936581
Sn      24.39333215       5.23257103       4.74338016       0.01533452      -0.08504035       0.05883623
Sn       1.35451933       9.39307741       4.76430889       0.08555372      -0.00881167      -0.02295499
Sn      12.85640278       9.37327702       4.75645849       0.10645494       0.04444192       0.04837352
Sn      24.41197600       9.40950873       4.75494956      -0.06446360      -0.01794644       0.00066417
Sn       1.36442625      13.55635160       4.76542660      -0.04234324       0.03995425      -0.09568454
Sn      12.89755944      13.57728047       4.75880453      -0.13818176      -0.06529463      -0.00062034
Sn      24.39003025      13.56480223       4.77290240      -0.00099780       0.01416683       0.00424046
Sn       1.36212755      17.72065511       4.75549444      -0.00075183       0.05565437      -0.01375101
Sn      12.87948388      17.72059642       4.76141490      -0.02266668       0.07552021      -0.03847810
Sn      24.40347561      17.75740832       4.74577076       0.03306056      -0.02602673       0.07903940
Sn       1.37343794       1.05212120       9.12539462      -0.04213632       0.01642502      -0.01687871
Sn      12.87220613       1.03180357       9.12117038       0.05080866       0.03106743       0.02359365
Sn      24.39931734       1.03685850       9.13311478       0.00977465       0.01525512      -0.03050421
Sn       1.36212521       5.19760497       9.11795785       0.05115368       0.03124009       0.00204474
Sn      12.88707688       5.21996159       9.12354064      -0.06539649      -0.02245310       0.03032492
Sn      24.41335545       5.20539407       9.11596133      -0.10073372       0.05304296      -0.02686641
Sn       1.38158326       9.37095762       9.11966147      -0.02497901       0.02795823       0.04836658
Sn      12.89456335       9.40277128       9.12679957      -0.11010778      -0.00388343      -0.01255286
Sn      24.40526996       9.38022089       9.13393018      -0.00388580      -0.00083513      -0.07229259
Sn       1.35413211      13.55331613       9.12407715       0.05762913       0.01149799      -0.00647943
Sn      12.87734400      13.56678723       9.12450608       0.05261634      -0.00223022      -0.01585033
Sn      24.41619666      13.56905750       9.11401307      -0.08667132      -0.00380555       0.00701573
Sn       1.37289760      17.73049186       9.12932997      -0.09047115       0.06270637      -0.05780771
Sn      12.88292042      17.74281484       9.10239187       0.04598441      -0.04841445       0.08567277
Sn      24.37590811      17.72379516       9.13765612       0.08655520       0.02784046      -0.01499608
Sn       1.35465117       1.04977594      13.47488321       0.02577145      -0.04099224      -0.01114400
Sn      12.87987384       1.04200564      13.49774008      -0.03649714      -0.01172640      -0.04983455
Sn      24.40426062       1.04630317      13.49426928      -0.04548390      -0.04067427      -0.00252944
Sn       1.35980075       5.22722541      13.49031532      -0.00341329      -0.05318605      -0.02392698
Sn      12.89117314       5.21499181      13.47692914      -0.02841804       0.02667558      -0.01121270
Sn      24.38971733       5.20847016      13.47213216       0.01150786       0.01294182       0.01508843
Sn       1.36980120       9.38834776      13.48561629      -0.05358889      -0.00838395      -0.03483042
Sn      12.88715296       9.38003356      13.47040461      -0.03874182      -0.00044981       0.03561582
Sn      24.39612896       9.38287991      13.47249817       0.04124942       0.00438944       0.02013135
Sn       1.38308959      13.54938671      13.50153294      -0.04081018       0.03363510      -0.03464030
Sn      12.88516291      13.57458264      13.48998562      -0.01233264      -0.00899524      -0.00976826
Sn      24.40458515      13.58133858      13.47047812      -0.00456882      -0.04183579       0.01628890
Sn       1.36456894      17.73028093      13.46434150       0.05201719       0.04105619       0.06105256
Sn      12.87566173      17.75753488      13.47956762       0.04238299      -0.06134307       0.04321382
Sn      24.41825072      17.75966767      13.51125359      -0.11426779      -0.09959387      -0.06965677
Sn       1.38518765       1.06603416      17.84565785      -0.06149826      -0.05972438      -0.01894012
Sn      12.88455742       1.04540123      17.84240679       0.01682909      -0.06700827       0.01596178
Sn      24.39991219       1.04997466      17.83774799       0.01428951      -0.00081942       0.03759931
Sn       1.35235648       5.22017817      17.83547812       0.03279555      -0.00525688       0.02002440
Sn      12.87638141       5.21511445      17.83868474       0.06365360       0.04217695       0.02621555
Sn      24.40951599       5.21487456      17.85401067      -0.13426242      -0.00826702      -0.00862860
Sn       1.36819288       9.38974583      17.84398838       0.05294447      -0.01334835       0.02070296
Sn      12.86935784       9.39401189      17.85089806       0.01648564      -0.00789504      -0.04448121
Sn      24.40832407       9.37710938      17.82721637      -0.02153262       0.08498782       0.01532655
Sn       1.36076454      13.57856688      17.84461593      -0.00011697       0.01371841      -0.00882559
Sn      12.87452719      13.55019086      17.83556628       0.11336570       0.05034846      -0.02639983
Sn      24.39090005      13.57407644      17.85253161       0.03693184      -0.05493094      -0.03606766
Sn       1.35563370      17.74634106      17.84891374       0.03327946       0.00634319      -0.03094544
Sn      12.87047733      17.73797121      17.84581437       0.04759121       0.06336068      -0.04448082
Sn      24.40004792      17.72170399      17.84371800       0.00977321       0.08495179      -0.02617871
