192
Lattice="25.19038208 0.0 0.0 -12.59519104 21.81550832 0.0 0.0 0.0 27.14312451" Properties=species:S:1:pos:R:3:displacements:R:3:forces:R:3 pbc="T T T"
Mo      -0.75949758      20.90238008      13.59099293       0.01490137      -0.00414800       0.01943068      -0.55072753      -0.21820669       0.21191990
Mo       3.99448851      18.17256495      13.56453815       0.04569082      -0.00702459      -0.00702410      -1.48384493      -0.06553102       0.36000352
Mo       5.57057300      15.47567400      13.55747795       0.04737643       0.02302300      -0.01408430      -1.21021298      -1.62898007       1.01249896
Mo       7.11387222      12.71180987      13.55759033       0.01627677      -0.01390259      -0.01397192      -0.52581324      -0.13707711       0.43948147
Mo       8.67925319       9.94137557      13.51981470       0.00725886      -0.05739835      -0.05174755       0.75487401       1.58034426       1.47285378
Mo      10.22952460       7.24145052      13.58098960      -0.01686861      -0.03038486       0.00942735       0.56869096       0.73158363      -0.58330354
Mo      11.79355146       4.50252763      13.61553167      -0.02724063      -0.04236921       0.04396942       0.55483293       1.32493120      -0.75417173
Mo      13.38841778       1.81998409      13.52881970      -0.00677319       0.00202579      -0.04274255       0.40114362      -0.37714113       0.82531134
Mo       0.78366850      18.18291728      13.53703240      -0.01633143       0.00332774      -0.03452985       0.78307748       0.07164712       1.20063032
Mo       2.38566974      15.43463183      13.56281131       0.01127093      -0.01801917      -0.00875094      -0.40122652       0.20809911      -0.05770232
Mo       2.35634776      20.96209632      13.57115727      -0.01805105       0.05556824      -0.00040498       0.94262100      -2.71011360      -0.45513907
Mo       3.91706637      12.75038885      13.53493695      -0.03173132       0.02467639      -0.03662530       1.61222335      -0.46409637       0.60901918
Mo       7.10386131       7.21304520      13.53171669       0.00626586      -0.05879018      -0.03984556      -0.27158748       1.70649718       0.50580313
Mo       8.67790022       4.56705093      13.57670343       0.00590589       0.02215409       0.00514118      -0.27811234      -0.45000697      -0.64338428
Mo      10.24292386       1.80892515      13.52720658      -0.00346935      -0.00903315      -0.04435567       0.26970898       0.32088485       1.02640914
Mo      -3.94479192      20.89270883      13.60327601      -0.02159521      -0.01381925       0.03171376       0.73308179       0.11161898      -0.95134994
Mo      -2.33848917      18.12669828      13.58128465       0.01030866      -0.05289126       0.00972240      -0.47390793       0.97629767      -0.07542005
Mo      -0.78595151      15.43234338      13.58991263      -0.01155256      -0.02030762       0.01835038       0.62256324       0.98362169      -0.13768448
Mo       0.83092981      12.75365093      13.54638564       0.03092988       0.02793847      -0.02517661      -1.70675488      -0.43500747       0.86033966
Mo       2.36512245      10.00871176      13.60082851      -0.00927636       0.00993784       0.02926626       0.85069741       0.44995357      -0.89148464
Mo       3.93442242       7.26626566      13.53837218      -0.01437527      -0.00556972      -0.03319007       0.21550749      -0.06625309       1.02114019
Mo       5.48731035      10.02314970      13.61224952      -0.03588622       0.02437578       0.04068727       1.02810884      -0.82682532      -1.09082708
Mo       5.52103612       4.57500290      13.58241136      -0.00216045       0.03010606       0.01084911      -0.47850939      -0.71809009      -0.69458521
Mo      16.52463521       1.82880017      13.61770339      -0.01935352       0.01084187       0.04614114       0.27061018      -0.44666671      -1.32468259
Mo      13.39411622       7.31877472      13.49296988      -0.00107475       0.04693934      -0.07859237      -0.41562836      -1.86569334       2.27664845
Mo      13.41984807      18.18220086      13.56259199       0.02465710       0.00261132      -0.00897026      -0.94156882      -0.37842216       0.09920697
Mo      14.97234265      15.39302398      13.56497217       0.00275280      -0.05962702      -0.00659008       0.16566469       1.05453837       0.52039747
Mo      16.55470207      12.77004921      13.55601413       0.01071334       0.04433675      -0.01554812       0.22836584      -1.11757931       0.85742983
Mo      18.09413280       9.98372122      13.59902431      -0.02425481      -0.01505270       0.02746206       0.79126263       0.18992255      -0.61827922
Mo      19.70264915       7.25594256      13.58696027       0.00986266      -0.01589282       0.01539802      -0.27306730       0.58132182      -0.12211242
Mo      21.27009776       4.57395619      13.55050054       0.00291239       0.02905935      -0.02106171      -0.41068571      -1.02139796       1.17441396
Mo      22.83175433       1.80619516      13.52765689      -0.00982992      -0.01176314      -0.04390536       0.37679741       0.48180405       1.54366130
Mo       8.68087810      20.91435963      13.57171561       0.00888377       0.00783155       0.00015336      -0.57517735      -0.41720057       0.45749271
Mo      10.23935565      18.13712849      13.55894287      -0.00703756      -0.04246105      -0.01261938       0.57775117       0.93773943      -0.54184782
Mo      14.95930852       4.52082844      13.56672372      -0.01028133      -0.02406840      -0.00483853      -0.49752020       0.81935848      -0.29308037
Mo      11.83291370      15.50923650      13.57679952       0.01212161       0.05658550       0.00523727       0.27705079      -1.49795602      -0.99867136
Mo      14.97731650       9.99654045      13.51399901       0.00772665      -0.00223347      -0.05756324       0.06457286      -0.25964336       2.52781631
Mo      16.54319334       7.27364236      13.64545941      -0.00079539       0.00180698       0.07389716       0.68034182      -0.08781001      -2.20345454
Mo      18.11261675       4.55394329      13.57052077      -0.00577086       0.00904645      -0.00104148      -0.09422052      -0.19998237       0.89798600
Mo      19.65772614       1.85224290      13.59412036      -0.03506035       0.03428460       0.02255811       1.06728727      -0.23274241       0.09191986
Mo       5.54692742      20.87924648      13.61364604       0.02373085      -0.02728160       0.04208379      -0.68208315       0.11639427      -1.26922949
Mo       7.05553998      18.19719531      13.63727603      -0.04205547       0.01760577       0.06571378       1.18642071      -0.40530842      -2.10903447
Mo       8.64227812      15.43566217      13.57455179      -0.02971621      -0.01698883       0.00298954       0.95198829       0.21641693      -0.28772124
Mo      10.23128881      12.67919263      13.57361916      -0.01510440      -0.04651983       0.00205691       0.57595795       1.07706431      -0.32217694
Mo      11.78892286      10.01298171      13.54397941      -0.03186923       0.01420779      -0.02758284       0.84757154      -1.03425766       1.31493477
Mo      13.44168901      12.70221476      13.56190038       0.04649804      -0.02349770      -0.00966187      -1.38037430       0.25092220       0.15431132
Mo       7.12200103       1.78103228      13.57838603       0.02440558      -0.03692602       0.00682378      -0.33142214       1.34137326       0.71398817
Mo      11.86000646      20.85830359      13.57710135       0.03921437      -0.04822449       0.00553910      -1.11677241       0.86342837       0.17781457
Mo      -2.34100141       7.29529011      13.53445380       0.00779642       0.02345473      -0.03710845       0.59085651      -0.39614791       1.49984917
Mo      -0.81401259       4.56055514      13.58047171      -0.03961364       0.01565830       0.00890946       1.07501849      -0.52163317       0.54909327
Mo      -2.34128304      12.73610580      13.55116148       0.00751479       0.01039334      -0.02040077      -0.28086270      -1.00950194       0.46863329
Mo      -7.06502681      15.46144309      13.55013167       0.00696766       0.00879209      -0.02143058      -0.40517301      -0.84776327       0.83410878
Mo       4.00477097       1.83217329      13.53582317       0.05597328       0.01421499      -0.03573908      -0.94361687      -0.58464358       1.27585657
Mo      -8.62669686      18.15034912      13.59517487       0.01969649      -0.02924042       0.02361262      -0.59829470       0.43397373      -0.15522788
Mo      -5.46283765      12.70109191      13.60046343       0.03475794      -0.02462055       0.02890118      -1.34101091       0.43466878      -0.20253289
Mo      -5.48521212      18.20425132      13.62846591       0.01238347       0.02466178       0.05690366      -0.90646385      -0.50816226      -2.25966438
Mo      -3.93055847       9.97616193      13.54487676      -0.00736176      -0.02261199      -0.02668549       0.50432518       0.59451654       1.09286092
Mo       0.77552558       1.81564520      13.58179684      -0.02447435      -0.00231310       0.01023459       0.20615941       0.34898358      -0.45498523
Mo     -10.21249150      20.93134366      13.57195230       0.00830073       0.02481558       0.00039005       0.26194592      -1.12994316      -0.39166770
Mo      -7.02838853      20.89858833      13.65316724       0.04360594      -0.00793975       0.08160499      -0.56115794       0.61277974      -2.56097848
Mo       2.39316892       4.51918203      13.53943538       0.01877011      -0.02571481      -0.03212687      -0.79678141       0.78667105       1.02707666
Mo       0.81447407       7.26513147      13.59298225       0.01447414      -0.00670391       0.02142000      -0.14088244       0.42572400       0.03493495
Mo      -0.76020178       9.99658910      13.54615846       0.01419717      -0.00218482      -0.02540379      -0.28805605       0.28517990       0.82270565
Mo      -3.96864205      15.43925562      13.59725430      -0.04544534      -0.01339538       0.02569205       0.76351956      -0.55453829      -0.69787328
S       -5.49117645      14.50629970      12.00591562       0.00642279      -0.03737215       0.00519547      -0.05144214       0.12057593       0.01490334
S        7.10915129      19.97103327      12.00533204       0.01155949      -0.02651566       0.00461189      -0.09967537       0.25939420       0.33298679
S        8.67373688       0.87468997      15.15313811       0.00174620      -0.03428918       0.01073375       0.33571787       0.40571759       0.00922117
S       21.28400512       0.94147073      12.03233429       0.01682340       0.03249158       0.03161414      -0.85151777      -0.34452716      -0.54507486
S       -5.53892923      14.51553704      15.15785531      -0.04132999      -0.02813481       0.01545095       0.17415863       0.18265098       0.06371307
S       19.70819633       3.65136918      15.25798630       0.01541349       0.01545149       0.11558194      -0.22781221       0.15358424      -1.53932126
S       18.13551077       6.39692311      15.17102434       0.01712681       0.03406688       0.02861998      -0.06006861      -0.59769441      -0.03984289
S       21.28672354       0.89952104      15.16517337       0.01954182      -0.00945811       0.02276901      -0.27696629       0.23596793      -0.48447867
S       19.66959824       3.62881303      11.98615922      -0.02318460      -0.00710466      -0.01456093       0.10317826       0.30170460       0.37873712
S        8.67444687      17.34005024      15.08638638       0.00245619       0.06943985      -0.05601798      -0.14889960      -1.14026754       1.08778449
S        8.69257853      17.22222883      11.98656230       0.02058785      -0.04838156      -0.01415785      -0.74400363       0.39829915       0.31862712
S       18.15105236       6.36478472      11.96838780       0.03266840       0.00192849      -0.03233235      -0.45598569       0.01037687       0.80800014
S       -7.09345730      17.29099829      15.12049334      -0.02145918       0.02038790      -0.02191102       0.37760927      -0.51312155       0.91607067
S       10.25288326      14.54503903      11.98117221       0.00649370       0.00136718      -0.01954794      -0.11792435      -0.13216880       0.56125593
S       10.31070778      14.56268952      15.08165018       0.06431822       0.01901767      -0.06075418      -0.79682108      -0.34988430       0.61320013
S       -7.06640447      17.25075675      12.02629304       0.00559365      -0.01985364       0.02557289       0.25807375       0.46883994      -0.23618910
S       11.79701275      11.81329126      12.01586981      -0.02377569      -0.00344205       0.01514966       0.32994889       0.12683558      -0.49968741
S       11.84676111      11.78072441      15.13236928       0.02597267      -0.03600890      -0.01003508      -0.15058482       0.34283385       0.00311408
S       13.38093888       9.07019484      12.05368371      -0.01424844      -0.01959993       0.05296356      -0.15288836       1.06302784      -1.84341636
S       13.40733677       9.05196821      15.16994025       0.01214945      -0.03782656       0.02753589      -0.15170050       0.60785330      -0.92887980
S       -8.58273221      20.02852281      15.09682318       0.06366479       0.03097388      -0.04558118      -1.07107270      -0.48415925       1.10369464
S       14.95505916       6.40086364      11.97949016      -0.01452704       0.03800741      -0.02122999       0.50450551      -0.48316377       0.24347714
S       14.98290070       6.38609520      15.11459650       0.01331450       0.02323897      -0.02780786      -0.78916378      -0.38818568       0.25366706
S       -8.64818262      19.90031088      11.96998843      -0.00178562      -0.09723805      -0.03073172       0.31347063       1.00246461       0.83380349
S        7.09001466      19.96011548      15.19137680      -0.00757714      -0.03743345       0.04897244       0.26258438       0.71299524       0.03066059
S       -3.96610462      11.80353187      12.00464233      -0.04290426      -0.01320144       0.00392218       0.56694362       0.01900110      -0.23658150
S       15.01282436      11.77365750      12.03561508       0.04323816      -0.04307581       0.03489493      -0.11190171       0.69852081      -1.17787096
S       16.54429215       9.06034951      12.01458323       0.00030707      -0.02944526       0.01386308       0.25700082      -0.07215183      -0.19343249
S       13.40115920      19.97954241      15.14449845       0.00597188      -0.01800652       0.00209409       0.37641214       0.13601321       0.15922505
S        2.36283567       0.91238477      12.02058403      -0.01155949       0.00340562       0.01986388       0.22662063       0.13445108      -0.38666538
S       15.01716655      17.23347603      12.06471115       0.04758035      -0.03713436       0.06399100      -0.33929547      -0.02181701      -0.74248591
S       14.91102347      17.26605684      15.16005391      -0.05856273      -0.00455355       0.01764955       0.69851121      -0.36316910      -0.15162472
S       16.55241479      14.52499079      11.99447642       0.00842971      -0.01868106      -0.00624373       0.03731429       0.39434086      -0.42010970
S       16.52919505      14.52599082      15.16789230      -0.01479003      -0.01768103       0.02548794       0.30796030       0.39265220      -0.29083302
S        0.81070685       3.61513035      15.16939223       0.01071057      -0.02078734       0.02698787      -0.22877752       0.31666250      -0.61960251
S       18.12760288      11.84111912      12.01960905       0.00921892       0.02438581       0.01888890       0.10007632      -0.40753863       0.04035894
S       18.09351400      11.79992795      15.16482322      -0.02486996      -0.01680536       0.02241886       0.20153375       0.21079570      -0.28467761
S        0.81830742       3.63529071      12.00424007       0.01831114      -0.00062698       0.00351992      -0.60505281      -0.01736488       0.02017586
S       19.73111290       9.07204764      12.01713305       0.03833006      -0.01774713       0.01641290      -0.79293375      -0.04544496      -0.18197037
S       19.68671712       9.08326430      15.17536778      -0.00606572      -0.00653047       0.03296342       0.11353554       0.02963824      -0.42284724
S       21.29194424       6.38726146      12.03988442       0.02476252       0.02440523       0.03916427      -0.29269244      -0.12295680      -0.98787326
S       21.26781173       6.38331481      15.13309644       0.00063001       0.02045858      -0.00930792       0.37157818      -0.13414259       0.03552790
S       16.55371020       9.08589045      15.14531437       0.00972512      -0.00390432       0.00291001      -0.50605983       0.30802389       0.32945802
S       -0.75654778       6.33830964      15.20517609       0.01785482      -0.02454659       0.06277173      -0.30311182       0.39336583      -0.86155245
S       22.81140013       3.59949212      15.17714756      -0.03018047      -0.03642557       0.03474320       0.08066678       0.31871928      -0.82804196
S       -0.75065273       6.38157983      12.01957051       0.02374987       0.01872360       0.01885036      -0.04754885      -0.13824787      -0.25253404
S       24.41561220       0.88206143      12.00299420      -0.00036728      -0.02691772       0.00227405       0.11286388      -0.14601587      -0.14691895
S       24.39566457       0.93823266      15.13799252      -0.02031491       0.02925351      -0.00441184       0.02295262      -0.62960156      -0.12338779
S       10.22162464      19.98790735      12.01310800      -0.02476492      -0.00964158       0.01238785       0.40947213      -0.14489441      -0.03063170
S       10.22947787      19.97288235      15.14971509      -0.01691169      -0.02466658       0.00731073       0.33467004      -0.01519137      -0.30680617
S       -2.34145256       9.07458652      15.12827311       0.00734892      -0.01520825      -0.01413125      -0.00540289       0.19110763      -0.13859091
S       11.82775005      17.22716786      11.95849631       0.00696161      -0.04344253      -0.04222384       0.16147747       0.72845262       0.21789241
S       11.79923517      17.26420688      15.15173155      -0.02155327      -0.00640351       0.00932719       0.32709597       0.43085689      -0.02490681
S       -2.30454085       9.11552463      11.99592206       0.04426063       0.02572986      -0.00479809      -0.47381709      -0.17143692      -0.49129991
S       13.39461688      14.51359590      12.00016480      -0.00057044      -0.03007595      -0.00055535      -0.03478609       0.14323576      -0.11506169
S       13.38652750      14.55335335      15.11758740      -0.00865982       0.00968150      -0.02481696       0.01624712      -0.33854045       0.28027384
S       14.98516658      11.86271538      15.13914149       0.01558038       0.04598207      -0.00326287       0.19206860      -0.67998223      -0.13633130
S       -3.91114903      11.83743754      15.13036774       0.01205133       0.02070423      -0.01203662       0.30705584      -0.60722705       0.21052364
S       22.84830341       3.63629553      12.00365052       0.00672281       0.00037784       0.00293037      -0.15360448       0.18482061      -0.31651219
S       16.52079469       3.63665309      12.01566000      -0.02319039       0.00073540       0.01493985       0.23428305      -0.05124851       0.01820008
S        5.56672719       0.93775730      15.20699984       0.04353427       0.02877815       0.06459548      -0.24350791      -0.12338145      -0.40238581
S       18.09536360       0.93514882      12.00622043      -0.02302036       0.02616967       0.00550028       0.13639811      -0.38169336       0.44423428
S        7.16328592       9.06554574      15.11721283       0.06569412      -0.02424903      -0.02519153      -0.75578191      -0.18120073      -0.14828612
S       -0.79238438      11.75301654      15.12663176      -0.01798178      -0.06371677      -0.01577260       0.41065338       0.82757253      -0.17504810
S        8.64921656       6.36736811      12.01097292      -0.02277412       0.00451188       0.01025277       0.42585765      -0.36777174      -0.73405388
S        8.72827594       6.39136888      15.12509736       0.05628526       0.02851265      -0.01730700      -0.96294324      -0.48116148       0.55852830
S       -0.80135492      11.83149085      11.96111317      -0.02695232       0.01475754      -0.03960698       0.46351699      -0.00887550       0.29251846
S       10.30133318       3.67130092      11.98664481       0.05494362       0.03538323      -0.01407534      -0.78790717      -0.43384693       0.09479461
S       10.19499564       3.67653380      15.13896804      -0.05139392       0.04061611      -0.00343632       0.20409053      -0.87173350       0.27888872
S       11.85792297       0.86114625      11.98273892       0.03713453      -0.04783290      -0.01798123      -0.46457493       0.23376702      -0.04151217
S       11.82094575       0.91038865      15.12890228       0.00015731       0.00140950      -0.01350208      -0.01199544       0.17152031      -0.12159949
S       -2.33011601      14.51164319      15.13813285       0.01868547      -0.03202866      -0.00427151      -0.43649238       0.23733913       0.28357850
S       -2.34519271      20.01298209      12.02206849       0.00360877       0.01543316       0.02134834      -0.14040664      -0.39627209       0.29659401
S       -2.38254060      19.95152541      15.18073479      -0.03373912      -0.04602352       0.03833043       0.42750675       0.14164783      -0.44879511
S       -2.33883188      14.52121715      12.04725459       0.00996960      -0.02245470       0.04653444      -0.43779443       0.58777121      -0.66878437
S       -0.77093225      17.30598925      12.00274557       0.00347035       0.03537886       0.00202542      -0.23498174      -0.78407075      -0.18928490
S        7.15941416       9.14245501      11.99325118       0.06182236       0.05266024      -0.00746897      -1.39764399      -0.87484080      -0.16107182
S       -0.74525556      17.28997165      15.18346322       0.02914704       0.01936126       0.04105886      -0.19527408      -0.34067318      -0.51984300
S        0.77104850      14.56425347      15.17415720      -0.02894778       0.02058162       0.03175284       0.44267257      -0.25936446      -0.45839482
S       -3.97596262      17.23511263      15.08122729      -0.05276226      -0.03549776      -0.06117707       0.82650218       0.12434812       1.59553504
S        2.36631308      11.83825954      12.04579077      -0.00808208       0.02152623       0.04507062       0.03171913      -0.40722442      -1.14692904
S        2.37661796      11.86559176      15.10100132       0.00222280       0.04885845      -0.04140304      -0.05115167      -0.22408238       0.72788406
S       -3.97430170      17.26894390      12.01224213      -0.05110134      -0.00166649       0.01152198       0.41439701      -0.10349730       0.11337941
S        3.94781313       9.02777153      11.99804655      -0.00098091      -0.06202324      -0.00267360      -0.04771173       1.06720665       0.08385226
S        3.90965990       9.10988489      15.15340221      -0.03913414       0.02009012       0.01099785       0.40580628      -0.39965109       0.07474793
S        5.49499644       6.34744030      11.96894369      -0.02819648      -0.01541593      -0.03177646       0.19884865       0.02952792      -0.05069224
S        5.52131246       6.39151046      15.11283247      -0.00188046       0.02865423      -0.02957189      -0.04654548      -0.07096096       0.28891390
S       -5.48247783      19.98164128      15.11861830       0.01512141      -0.01590765      -0.02378606       0.17626216       0.21534095       1.74439591
S        7.09438091       3.60486048      11.98411073      -0.00321089      -0.03105721      -0.01660942       0.07895019       0.27284648       0.51402998
S        7.06165533       3.69485948      15.14346240      -0.03593647       0.05894179       0.00105804       0.50869032      -0.58126739      -0.10903777
S       -5.51859114      20.00396836      11.99735033      -0.02099190       0.00641943      -0.00336982       0.20026631      -0.04364982       0.42885994
S        8.66536158       0.92740409      12.02344546      -0.00662910       0.01842494       0.02272531       0.09095028      -0.62182575      -0.53199173
S        0.78408137      14.52639724      11.99246864      -0.01591491      -0.01727461      -0.00825151       0.15303909       0.46500170      -0.04156593
S       16.47492741       3.59046202      15.18341056      -0.06905767      -0.04545567       0.04100620       0.58869412       0.72801103      -0.19251914
S        5.57254201      11.80926215      15.15970104       0.04934909      -0.00747116       0.01729668      -0.70667605       0.42147420      -0.29089585
S        0.80933385       9.18216120      12.03430732       0.00933757       0.09236643       0.03358717       0.22449084      -1.16367793      -0.64397344
S       18.11454633       0.88031292      15.09421093      -0.00383763      -0.02866623      -0.04819343       0.02327494       0.26942336       1.11116041
S        3.95489805      19.97485840      11.95805252       0.00610401      -0.02269053      -0.04266763       0.10191297       0.36557984       0.93322102
S        3.92939682      19.96510251      15.19301869      -0.01939722      -0.03244642       0.05061433       0.15618548       0.28129031      -0.78536554
S        5.54964207       0.90874005      12.04511843       0.02644915      -0.00023910       0.04439828       0.18441109      -0.58814064      -0.51799292
S        5.52551384      17.24477188      12.04641397       0.00232092      -0.02583851       0.04569382       0.37651859       0.50749943      -0.91614327
S        5.53936023      17.23949297      15.13669426       0.01616731      -0.03111742      -0.00571010      -0.36313550       0.09450321       0.79896548
S        7.07132327      14.50218792      12.02850548      -0.02626853      -0.04148393       0.02778533       0.52019621       0.37765805      -0.69069055
S        7.15487435      14.50171474      15.15929335       0.05728255      -0.04195711       0.01688899      -0.51798559       0.27364096      -0.01093914
S        3.92927477       3.62130392      15.12463267      -0.01951927      -0.01461377      -0.01777169       0.38455769       0.15343033       0.12628267
S        8.64607091      11.81818906      11.97579163      -0.02591977       0.00145575      -0.02492852       0.34282699      -0.33030934       0.02375340
S        8.68010438      11.81522608      15.13523586       0.00811370      -0.00150723      -0.00716850      -0.04846900      -0.65906892      -0.10559364
S        3.92156727       3.61861450      12.02338194      -0.02722677      -0.01730319       0.02266179       0.77160729       0.31908918      -0.88353636
S       10.26141713       9.06046818      12.00370019       0.01502757      -0.02932659       0.00298004      -0.08531274      -0.18135248      -0.56266166
S       10.26893105       9.03971269      15.15870516       0.02254149      -0.05008208       0.01630080      -0.28439253       0.45326432      -0.43748885
S        5.50331431      11.83385128      11.97782248      -0.01987861       0.01711797      -0.02289767       0.04059504      -0.31769614       0.37887016
S       11.76664209       6.31402985      12.00216281      -0.05414635      -0.04882638       0.00144266       0.42668432       0.10071260       0.06726260
S        2.38218692       6.33572668      15.16156225       0.00779176      -0.02712955       0.01915789       0.09832924      -0.03307357      -0.48799483
S       13.34534173       3.63393531      11.96438962      -0.04984559      -0.00198238      -0.03633053       0.32366188       0.07002025       0.41815249
S       13.37563228       3.63733962      15.11659206      -0.01955504       0.00142193      -0.02581230       0.22330670      -0.40639087       0.44545709
S        2.36285847       6.39304497      11.98341342      -0.01153669       0.03018874      -0.01730673      -0.10847538      -0.45723259       0.04233957
S       14.99465693       0.87508789      12.01661435       0.02507073      -0.03389126       0.01589420      -0.11825088       0.83443209      -0.54669247
S       15.01283317       0.83482976      15.11849751       0.04324697      -0.07414939      -0.02390685      -0.90751999       1.27679669       0.92475941
S       13.41249941      19.99145760      12.01185453       0.01731209      -0.00609133       0.01113438       0.17945470      -0.00569073      -0.33806980
S        0.78187659      20.00014672      11.99604990      -0.01811969       0.00259779      -0.00467025       0.15540127       0.18981992      -0.01582786
S        0.83502968      20.00518152      15.15253255       0.03503340       0.00763259       0.01012819      -0.34422757      -0.13726546      -0.21674495
S        2.36203877      17.25598222      11.98774329      -0.01235639      -0.01462817      -0.01297686       0.34046369       0.08771919       0.23035110
S        2.38622859      17.25798096      15.15109749       0.01183343      -0.01262943       0.00869313      -0.02042960       0.07237875      -0.65809745
S        0.86225834       9.11592844      15.13262361       0.06226206       0.02613367      -0.00978075      -0.93141682      -0.36222997       0.44542495
S        3.98483052      14.53142964      11.93957646       0.03603648      -0.01224221      -0.06114369      -0.22644594       0.46350872       0.55944315
S        3.91855135      14.48754818      15.13185898      -0.03024269      -0.05612367      -0.01054538       0.55563711       0.76733011      -0.13255050
S       11.82134112       6.41314927      15.15221226       0.00055268       0.05029304       0.00980790       0.34598637      -0.49499683      -0.41631885
S        2.36782211       0.93386126      15.07607036      -0.00657305       0.02488211      -0.06633400       0.40396842       0.02512485       0.76440383
192
Lattice="25.19038208 0.0 0.0 -12.59519104 21.81550832 0.0 0.0 0.0 27.14312451" Properties=species:S:1:pos:R:3:displacements:R:3:forces:R:3 pbc="T T T"
Mo      -0.76733040      20.92965405      13.52720468       0.01490137      -0.00414800       0.01943068      -0.15126750      -0.11006627       1.25490101
Mo       3.98311039      18.18974444      13.55910356       0.04569082      -0.00702459      -0.00702410      -0.79761443       0.02938831      -0.17725476
Mo       5.54217992      15.52077189      13.57701829       0.04737643       0.02302300      -0.01408430      -0.25612293      -1.92626657      -0.67441901
Mo       7.10504198      12.71193160      13.54606698       0.01627677      -0.01390259      -0.01397192       0.27455597       0.64251216       1.04003932
Mo       8.69690434       9.97309139      13.57370927       0.00725886      -0.05739835      -0.05174755      -0.73939938       0.98955881      -0.28833279
Mo      10.23206341       7.28620482      13.58157209      -0.01686861      -0.03038486       0.00942735       0.15247949      -0.43691701       0.37749236
Mo      11.85191833       4.52959632      13.56346600      -0.02724063      -0.04236921       0.04396942      -1.43897421       0.82902942       0.25807807
Mo      13.36582805       1.80462946      13.58288120      -0.00677319       0.00202579      -0.04274255       0.60372341      -0.24814961       0.00388915
Mo       0.82270944      18.15192464      13.59765032      -0.01633143       0.00332774      -0.03452985      -0.76907152       0.99642481      -0.64366702
Mo       2.41506793      15.46505399      13.62786605       0.01127093      -0.01801917      -0.00875094      -1.13426954       0.23787157      -1.07395982
Mo       2.35118524      20.86918844      13.51820077      -0.01805105       0.05556824      -0.00040498       0.86876725       0.71409676       1.29997269
Mo       3.99367914      12.74534336      13.56989458      -0.03173132       0.02467639      -0.03662530      -0.63288552       0.21827775      -0.06930096
Mo       7.10599443       7.23807065      13.64493473       0.00626586      -0.05879018      -0.03984556       0.41824529       1.21453734      -1.17171291
Mo       8.67587088       4.54817877      13.59333538       0.00590589       0.02215409       0.00514118       0.33908980       0.27252416      -0.72832487
Mo      10.26082352       1.82467486      13.54784812      -0.00346935      -0.00903315      -0.04435567      -0.52723178      -0.23824206       0.07396402
Mo      -3.90905256      20.96298880      13.61192489      -0.02159521      -0.01381925       0.03171376      -0.14358722      -1.86461197      -1.30197094
Mo      -2.30100223      18.16425302      13.54187419       0.01030866      -0.05289126       0.00972240      -0.94314455       0.12720457       1.31711373
Mo      -0.77817260      15.45432272      13.60438806      -0.01155256      -0.02030762       0.01835038       0.05380431       0.11686310      -0.39310529
Mo       0.74922607      12.77159898      13.56682197       0.03092988       0.02793847      -0.02517661       1.39785228      -0.70376247       0.02908891
Mo       2.36159240       9.96841088      13.52191666      -0.00927636       0.00993784       0.02926626       0.21145327       0.34539660       1.95605354
Mo       3.97349283       7.27403482      13.53286348      -0.01437527      -0.00556972      -0.03319007      -0.18993997      -0.27658845       1.28663358
Mo       5.48434418       9.98870039      13.62163290      -0.03588622       0.02437578       0.04068727       1.14000214       0.41638539      -1.32137563
Mo       5.51540884       4.49980266      13.56418991      -0.00216045       0.03010606       0.01084911       0.52360761       1.27408502       0.07474666
Mo      16.53580702       1.73705178      13.56993339      -0.01935352       0.01084187       0.04614114       0.46045684       2.43988364       0.80870051
Mo      13.38826286       7.29272155      13.62703085      -0.00107475       0.04693934      -0.07859237      -0.14671992      -0.57575868      -1.02881118
Mo      13.42898802      18.17152282      13.53836648       0.02465710       0.00261132      -0.00897026      -1.24068739      -0.10191805       1.46393416
Mo      15.04679056      15.45442765      13.57198025       0.00275280      -0.05962702      -0.00659008      -2.22689643       0.45688568       0.67403457
Mo      16.54326501      12.73165500      13.56723156       0.01071334       0.04433675      -0.01554812      -0.45827332       0.51553453       1.04619095
Mo      18.10117779       9.98236822      13.57057967      -0.02425481      -0.01505270       0.02746206       0.46393528       0.47193997       0.24385775
Mo      19.67648378       7.25045007      13.57475510       0.00986266      -0.01589282       0.01539802       0.67838864       0.85863894      -0.01370212
Mo      21.25953606       4.59001655      13.49203317       0.00291239       0.02905935      -0.02106171       0.12031919      -1.01749653       2.61232589
Mo      22.87432948       1.85534092      13.50936052      -0.00982992      -0.01176314      -0.04390536      -1.07394660      -1.32105486       2.90607754
Mo       8.66171376      20.89538494      13.52933678       0.00888377       0.00783155       0.00015336       0.36384895       0.60202678       1.40022395
Mo      10.22305873      18.14627224      13.62413034      -0.00703756      -0.04246105      -0.01261938       0.95373055       1.10113446      -1.16339190
Mo      14.99766025       4.58304344      13.59321242      -0.01028133      -0.02406840      -0.00483853      -1.17215507      -0.89966110      -0.25029804
Mo      11.78692060      15.43691547      13.58624342       0.01212161       0.05658550       0.00523727       0.20007345       0.27196327      -0.97629599
Mo      14.93292613      10.02016381      13.56435249       0.00772665      -0.00223347      -0.05756324       1.71574137       0.36916089      -0.26248592
Mo      16.53274412       7.29316418      13.58489007      -0.00079539       0.00180698       0.07389716       0.02716369      -0.64489299      -0.32744585
Mo      18.10755864       4.57967665      13.53913029      -0.00577086       0.00904645      -0.00104148       0.14883325      -1.21699958       0.77893802
Mo      19.71126452       1.83575125      13.56227577      -0.03506035       0.03428460       0.02255811      -0.73059884       0.02058777       0.75195912
Mo       5.53298064      20.86899472      13.59928298       0.02373085      -0.02728160       0.04208379      -0.67495884       0.91565427      -0.60943480
Mo       7.09204840      18.16390790      13.60303253      -0.04205547       0.01760577       0.06571378       0.47995815       0.47054923      -0.92580940
Mo       8.65086401      15.41039720      13.52486332      -0.02971621      -0.01698883       0.00298954       0.54888858       0.89185294       1.50942787
Mo      10.26457349      12.68729949      13.62420607      -0.01510440      -0.04651983       0.00205691       0.39777574       1.52581912      -0.99192484
Mo      11.75833418      10.04966754      13.57789284      -0.03186923       0.01420779      -0.02758284       2.45609355      -1.08120606      -0.48883793
Mo      13.39228954      12.70936479      13.58353644       0.04649804      -0.02349770      -0.00966187      -0.29370837       0.98071873      -0.58787326
Mo       7.09646629       1.85105744      13.57498907       0.02440558      -0.03692602       0.00682378       0.18590403      -1.22398312      -0.70311421
Mo      11.82530104      20.89561967      13.56985386       0.03921437      -0.04822449       0.00553910      -0.06108296       0.39992748       0.42918199
Mo      -2.33956367       7.22053032      13.53111682       0.00779642       0.02345473      -0.03710845       0.12826836       1.90647917       1.17360288
Mo      -0.75210105       4.55002283      13.56604270      -0.03961364       0.01565830       0.00890946      -0.17219575       0.30948144       0.40533484
Mo      -2.34824465      12.73613984      13.55536948       0.00751479       0.01039334      -0.02040077      -0.12025865      -0.93403582       1.13582447
Mo      -7.09534369      15.45852635      13.54221103       0.00696766       0.00879209      -0.02143058       0.32643259       0.05013064       1.10262548
Mo       3.96104525       1.76688078      13.60243701       0.05597328       0.01421499      -0.03573908      -0.76615547       1.09472734      -1.02002103
Mo      -8.63221545      18.18727034      13.60104294       0.01969649      -0.02924042       0.02361262      -0.58369093      -0.37384582      -1.00741818
Mo      -5.44763135      12.75614357      13.51633603       0.03475794      -0.02462055       0.02890118      -1.34865171      -0.70977382       1.73147594
Mo      -5.53598284      18.16084500      13.57234506       0.01238347       0.02466178       0.05690366       1.29752016       0.18705315      -0.38883926
Mo      -3.90766684       9.97700161      13.57716513      -0.00736176      -0.02261199      -0.02668549      -0.00377245       0.87239600      -0.10202769
Mo       0.77733841       1.79961277      13.52936229      -0.02447435      -0.00231310       0.01023459       0.64455927       0.80344680       0.25460863
Mo     -10.24848918      20.86597763      13.54228595       0.00830073       0.02481558       0.00039005       0.48861376       0.69802636       0.95520926
Mo      -7.04038533      20.87804619      13.65053381       0.04360594      -0.00793975       0.08160499      -1.56952779       1.10525395      -2.42914742
Mo       2.38919841       4.55044191      13.54581157       0.01877011      -0.02571481      -0.03212687       0.05718283      -0.25316806       0.79277452
Mo       0.82100921       7.25456622      13.57522250       0.01447414      -0.00670391       0.02142000      -0.03613448       0.74584599       0.30593441
Mo      -0.69759650       9.99589209      13.60604053       0.01419717      -0.00218482      -0.02540379      -1.96393778       0.59489266      -0.94704252
Mo      -3.94429189      15.45160124      13.62468623      -0.04544534      -0.01339538       0.02569205       0.85988700       0.15206844      -1.02764329
S       -5.51640814      14.59804526      12.02195259       0.00642279      -0.03737215       0.00519547       0.42269784      -0.16538668      -0.58521349
S        7.08071764      20.01652122      12.02989684       0.01155949      -0.02651566       0.00461189       0.02141191      -0.65282432      -0.58087931
S        8.69064491       0.86187249      15.12059025       0.00174620      -0.03428918       0.01073375      -0.09469852       1.40332410       0.77501035
S       21.25975610       0.90674611      12.01934033       0.01682340       0.03249158       0.03161414       0.13784236       0.19079092      -0.69026341
S       -5.49226820      14.50361160      15.15381017      -0.04132999      -0.02813481       0.01545095      -0.33893396       0.37616234      -0.20467307
S       19.71110040       3.65271149      15.17482791       0.01541349       0.01545149       0.11558194      -0.13833521       0.29943531      -1.15465910
S       18.14340166       6.37663163      15.14029941       0.01712681       0.03406688       0.02861998      -0.44889804      -0.16153934       0.01461831
S       21.21735288       0.92186775      15.14863506       0.01954182      -0.00945811       0.02276901       0.90976817      -0.08521807      -0.60710200
S       19.70093017       3.59761533      11.96828846      -0.02318460      -0.00710466      -0.01456093      -0.28834950       0.61950087      -0.07014733
S        8.70358521      17.26942363      15.16284938       0.00245619       0.06943985      -0.05601798      -0.58684135      -0.62419423       0.06179688
S        8.67284035      17.27150308      12.02886866       0.02058785      -0.04838156      -0.01415785      -0.12829357      -0.03016631      -0.16876058
S       18.10290271       6.36573980      11.98685191       0.03266840       0.00192849      -0.03233235      -0.08992419       0.22549743      -0.02479440
S       -7.08503314      17.26133531      15.14906827      -0.02145918       0.02038790      -0.02191102       0.05248687      -0.13021398       0.04670124
S       10.23202701      14.58134462      11.97388184       0.00649370       0.00136718      -0.01954794       0.19223491      -0.91799663       0.41560252
S       10.24078344      14.53048001      15.18581382       0.06431822       0.01901767      -0.06075418      -0.30133039      -0.02351424      -0.53279790
S       -7.06610156      17.30156572      11.95615331       0.00559365      -0.01985364       0.02557289      -0.35223792      -0.18255067       0.42009455
S       11.82879986      11.84342218      12.00318855      -0.02377569      -0.00344205       0.01514966      -0.16410740      -0.06287341       0.00633667
S       11.85275277      11.80121463      15.18468466       0.02597267      -0.03600890      -0.01003508      -0.25326098       0.18354208       0.08241892
S       13.46415430       9.07890970      11.98735515      -0.01424844      -0.01959993       0.05296356      -1.20112066       0.13688911       0.41118237
S       13.43878885       9.13718198      15.12671862       0.01214945      -0.03782656       0.02753589      -0.96867729      -0.15412442       0.39135692
S       -8.65900252      19.98909542      15.10207076       0.06366479       0.03097388      -0.04558118      -0.20523806       0.09240256       1.04756772
S       14.94202666       6.33273207      11.97768622      -0.01452704       0.03800741      -0.02122999       0.05745512       0.60375563       0.69889487
S       14.96854584       6.36988257      15.18891926       0.01331450       0.02323897      -0.02780786       0.08984301       0.28718205      -0.25670326
S       -8.67634773      20.02707862      11.99430053      -0.00178562      -0.09723805      -0.03073172       0.75289001      -0.44333505       0.25839176
S        7.09610796      20.01779350      15.10872273      -0.00757714      -0.03743345       0.04897244       0.37159570      -0.34112789       0.81276730
S       -3.91172816      11.82172688      12.01549361      -0.04290426      -0.01320144       0.00392218       0.17713700      -0.29002321      -0.60127354
S       14.97826139      11.89039228      11.98158805       0.04323816      -0.04307581       0.03489493      -0.22450771      -0.68159597       0.16394300
S       16.52805519       9.07110062      11.98405590       0.00030707      -0.02944526       0.01386308      -0.08550506       0.28744454       0.24812693
S       13.37606580      20.03321947      15.18501961       0.00597188      -0.01800652       0.00209409       0.16477819      -0.64374704      -0.56390738
S        2.35727288       0.88400846      12.01486253      -0.01155949       0.00340562       0.01986388       0.25340009       0.04800515      -0.46708939
S       14.95301937      17.28959839      12.00680781       0.04758035      -0.03713436       0.06399100       0.81631199      -0.33410882      -0.14531726
S       14.92411378      17.31703554      15.19628075      -0.05856273      -0.00455355       0.01764955       0.70053339      -0.47896641      -0.66577551
S       16.52560127      14.53204091      12.00929602       0.00842971      -0.01868106      -0.00624373       0.37114121       0.03681504      -0.54392976
S       16.55401879      14.56342819      15.20271041      -0.01479003      -0.01768103       0.02548794       0.12014112      -0.25528336      -0.68783677
S        0.79468778       3.61196884      15.10102467       0.01071057      -0.02078734       0.02698787       0.26082617       0.07422438       0.19204262
S       18.09645624      11.81573940      12.05455691       0.00921892       0.02438581       0.01888890       0.36692753      -0.00382330      -0.86383425
S       18.10285547      11.82344703      15.14191171      -0.02486996      -0.01680536       0.02241886       0.51623634       0.03009398      -0.42415247
S        0.83564798       3.71172571      11.98479419       0.01831114      -0.00062698       0.00351992      -0.35700660      -0.82261107      -0.27523359
S       19.67809962       9.12111966      12.02117684       0.03833006      -0.01774713       0.01641290       0.12881634      -0.53066472      -0.28138165
S       19.74818405       9.10731262      15.13162555      -0.00606572      -0.00653047       0.03296342      -0.75783706      -0.40357000       0.10250225
S       21.28490152       6.39611724      12.02533462       0.02476252       0.02440523       0.03916427      -0.51568087      -0.05004057      -1.30506659
S       21.28239999       6.39485653      15.17748332       0.00063001       0.02045858      -0.00930792      -0.08189743      -0.49219614      -0.80991774
S       16.58544983       9.10925617      15.13739075       0.00972512      -0.00390432       0.00291001      -0.77571012      -0.04533134       0.16535440
S       -0.77000121       6.39905143      15.11789629       0.01785482      -0.02454659       0.06277173       0.02747617      -0.60110217       0.26083078
S       22.85264082       3.62411746      15.14326670      -0.03018047      -0.03642557       0.03474320      -0.21548044       0.41938618      -0.58600786
S       -0.73604911       6.36858913      12.00211314       0.02374987       0.01872360       0.01885036      -0.09363928      -0.21374303      -0.42566940
S       24.37518391       0.93136666      12.02008460      -0.00036728      -0.02691772       0.00227405       0.61206194      -0.57822641      -1.14502888
S       24.48087708       0.89974574      15.14897897      -0.02031491       0.02925351      -0.00441184      -0.79792112       0.19228845      -0.40303000
S       10.25387110      20.04487244      11.99786116      -0.02476492      -0.00964158       0.01238785      -0.04054354      -0.95700521      -0.00024249
S       10.25476032      20.01578582      15.14800263      -0.01691169      -0.02466658       0.00731073      -0.27293145      -0.13654463      -0.18338034
S       -2.36219458       9.09561755      15.17461321       0.00734892      -0.01520825      -0.01413125       0.53566459      -0.42278669      -0.76022771
S       11.78999295      17.27459957      11.97971653       0.00696161      -0.04344253      -0.04222384       0.08210183      -0.10097472       0.55399514
S       11.85663990      17.22491475      15.12563669      -0.02155327      -0.00640351       0.00932719      -0.19094516       0.46821325       0.17998126
S       -2.33748520       9.13676051      11.99874766       0.04426063       0.02572986      -0.00479809       0.43967607      -0.54933047       0.28026533
S       13.37853131      14.60010661      11.95727975      -0.00057044      -0.03007595      -0.00055535       0.28854118      -0.46112831       0.99550666
S       13.32922316      14.55687220      15.12734264      -0.00865982       0.00968150      -0.02481696       1.01185396      -0.16909676      -0.04859490
S       14.93894928      11.83798401      15.14971835       0.01558038       0.04598207      -0.00326287       0.37599311      -0.15596380      -0.03291810
S       -3.94012288      11.77832427      15.16857820       0.01205133       0.02070423      -0.01203662       0.24730821       0.43434411      -0.61423958
S       22.86108652       3.63294249      12.05611927       0.00672281       0.00037784       0.00293037       0.07987732       0.69359063      -1.69336008
S       16.51188258       3.59015203      11.97996299      -0.02319039       0.00073540       0.01493985       0.25878287       0.21189407       0.56463273
S        5.52182546       0.91627927      15.13516719       0.04353427       0.02877815       0.06459548       0.34387582      -0.08596704       0.83532168
S       18.12894553       0.87143291      12.04403298      -0.02302036       0.02616967       0.00550028       0.14745089      -0.00302701      -0.44318795
S        7.09512730       9.12331364      15.15268618       0.06569412      -0.02424903      -0.02519153       0.08109675      -0.35665120       0.16917804
S       -0.76070017      11.83382642      15.15583559      -0.01798178      -0.06371677      -0.01577260      -0.21183409      -0.03091164      -0.10409460
S        8.69127228       6.40273083      12.00661591      -0.02277412       0.00451188       0.01025277      -0.43853697      -0.39074632       0.36689714
S        8.69326068       6.36016420      15.18560780       0.05628526       0.02851265      -0.01730700      -0.06413144      -0.16224611       0.05836355
S       -0.79469446      11.87076160      11.99951554      -0.02695232       0.01475754      -0.03960698       0.33017514      -0.67443226      -0.07691002
S       10.20346628       3.63976093      11.98028871       0.05494362       0.03538323      -0.01407534       0.54046652       0.17966464       0.25075032
S       10.27160879       3.61633893      15.12901873      -0.05139392       0.04061611      -0.00343632      -0.03149379       0.12189144       0.04083538
S       11.76410227       0.89540990      11.92800372       0.03713453      -0.04783290      -0.01798123       0.64633567       0.29186787       0.49227586
S       11.77327132       0.93179163      15.16597844       0.00015731       0.00140950      -0.01350208       0.44599812      -0.32590881      -0.48486744
S       -2.33603777      14.51466246      15.14097310       0.01868547      -0.03202866      -0.00427151      -0.26296601       0.24964522       0.31212288
S       -2.34890942      19.96279792      12.04582198       0.00360877       0.01543316       0.02134834      -0.17673663       0.66007898      -0.68862481
S       -2.32248055      19.99092007      15.14321105      -0.03373912      -0.04602352       0.03833043       0.07926811       0.11584927      -0.23473744
S       -2.34255011      14.48241979      11.99330492       0.00996960      -0.02245470       0.04653444      -0.25006528       1.05568743       0.31873208
S       -0.79486198      17.24056171      11.99228705       0.00347035       0.03537886       0.00202542       0.72605465      -0.06605298       0.08642660
S        7.15152227       9.10902012      11.98358470       0.06182236       0.05266024      -0.00746897      -0.75262583      -0.45190734       0.85130221
S       -0.75722515      17.31259106      15.17014328       0.02914704       0.01936126       0.04105886      -0.07797187      -0.54788210      -0.10032112
S        0.80178517      14.52426368      15.16335098      -0.02894778       0.02058162       0.03175284       0.00949571       0.44165941       0.10823795
S       -3.91139590      17.29746615      15.16145965      -0.05276226      -0.03549776      -0.06117707      -0.07577781      -0.08066706      -0.35917621
S        2.40588188      11.80067622      12.04024190      -0.00808208       0.02152623       0.04507062      -0.44128810       0.57887956      -0.43769829
S        2.38032309      11.87899106      15.12172863       0.00222280       0.04885845      -0.04140304      -0.16433641      -0.64217076      -0.31528675
S       -3.87112151      17.27654770      11.98117764      -0.05110134      -0.00166649       0.01152198      -0.63886752      -0.27395280       0.55580088
S        3.93427745       9.08018438      12.01344512      -0.00098091      -0.06202324      -0.00267360       0.41501808       0.18036936      -0.58783626
S        3.96447896       9.07258386      15.14167367      -0.03913414       0.02009012       0.01099785      -0.74897186      -0.06534587       0.08447106
S        5.58746114       6.41468246      12.01380992      -0.02819648      -0.01541593      -0.03177646      -0.24753233      -0.77965617      -0.00411593
S        5.52433304       6.36645710      15.16080984      -0.00188046       0.02865423      -0.02957189      -0.24386535      -0.53623297      -0.10373496
S       -5.52828289      19.98982755      15.09234674       0.01512141      -0.01590765      -0.02378606       1.06659355      -0.40528897       1.62340576
S        7.10956857       3.65533349      11.98622464      -0.00321089      -0.03105721      -0.01660942      -0.09611670      -0.06890148       0.09421916
S        7.14481130       3.59914481      15.09847321      -0.03593647       0.05894179       0.00105804      -0.60004948       0.55546428       1.04402289
S       -5.49086585      20.02896195      12.05123785      -0.02099190       0.00641943      -0.00336982       0.08191475      -0.22352527      -0.24358128
S        8.65822401       0.94133962      11.99956494      -0.00662910       0.01842494       0.02272531       0.00156446      -0.15054639      -0.01142824
S        0.79481739      14.57018162      12.02028980      -0.01591491      -0.01727461      -0.00825151       0.24804919       0.24830387       0.11798435
S       16.49669329       3.68021386      15.18380712      -0.06905767      -0.04545567       0.04100620       0.81239006      -0.57617965      -0.80802732
S        5.50442609      11.82860749      15.15722532       0.04934909      -0.00747116       0.01729668       0.39759045      -0.02031815      -0.00148347
S        0.80781638       9.07328567      11.98057154       0.00933757       0.09236643       0.03358717      -0.11620987      -0.07942318      -0.02806494
S       18.11761742       0.94416102      15.15871249      -0.00383763      -0.02866623      -0.04819343       0.24450930      -0.54346652      -0.17050747
S        3.93767551      20.02069998      11.91526382       0.00610401      -0.02269053      -0.04266763       0.27404547      -0.33210967       0.90209482
S        3.98325700      19.94535751      15.13153110      -0.01939722      -0.03244642       0.05061433      -0.65107118       0.55953469       0.05834153
S        5.48960293       0.87013860      12.03554505       0.02644915      -0.00023910       0.04439828       0.52762304       0.00655831      -0.03105637
S        5.50916188      17.28100548      11.99931251       0.00232092      -0.02583851       0.04569382       0.49124597       0.21576784      -0.34896044
S        5.53750408      17.27291498      15.10391460       0.01616731      -0.03111742      -0.00571010      -0.21431243       0.28138001       1.20794653
S        7.12747994      14.52885912      11.95402258      -0.02626853      -0.04148393       0.02778533      -0.61382612       0.06600515       0.31696059
S        7.08474823      14.58869470      15.16791103       0.05728255      -0.04195711       0.01688899       0.13967732      -0.54400960      -0.63971136
S        3.93833462       3.62543992      15.13275525      -0.01951927      -0.01461377      -0.01777169       0.03759946      -0.18969791       0.14299220
S        8.73429317      11.82819147      12.01362128      -0.02591977       0.00145575      -0.02492852      -0.35138855      -0.34093456      -0.00701770
S        8.70289903      11.82389709      15.13463301       0.00811370      -0.00150723      -0.00716850      -0.57649221      -0.38937222       0.31846379
S        3.94290352       3.63376974      11.99960348      -0.02722677      -0.01730319       0.02266179       0.17451497      -0.52245528      -0.04770668
S       10.26821841       9.09135305      12.02269930       0.01502757      -0.02932659       0.00298004      -0.27199956       0.01485136      -0.62305819
S       10.24396801       9.09215390      15.08245823       0.02254149      -0.05008208       0.01630080       0.01092311       0.00115973       1.50301984
S        5.55068268      11.82712796      12.03066037      -0.01987861       0.01711797      -0.02289767      -0.23294603      -0.48627674      -0.45978629
S       11.73390064       6.42550753      11.99653251      -0.05414635      -0.04882638       0.00144266       1.17790341      -0.58248858       0.39523287
S        2.40764080       6.33165896      15.16078758       0.00779176      -0.02712955       0.01915789      -0.03257944       0.31103545      -0.44755320
S       13.36358485       3.61720457      12.05814116      -0.04984559      -0.00198238      -0.03633053       0.81578958       0.13990459      -0.69394651
S       13.38946671       3.64244075      15.16850627      -0.01955504       0.00142193      -0.02581230       0.26817142      -0.09584766      -0.35531052
S        2.38926567       6.36736877      12.01166887      -0.01153669       0.03018874      -0.01730673       0.08729024       0.01746014      -0.48031277
S       15.04168863       0.90725049      12.00675325       0.02507073      -0.03389126       0.01589420      -1.29246912      -0.29044953      -0.32703456
S       15.00110592       0.94214483      15.17801533       0.04324697      -0.07414939      -0.02390685      -0.68173912      -0.89769430      -0.60074734
S       13.41434914      19.96325888      12.04972299       0.01731209      -0.00609133       0.01113438      -0.59778015       0.22762152      -1.32093040
S        0.76560599      20.00662789      11.97809174      -0.01811969       0.00259779      -0.00467025       0.25086492      -0.53157589      -0.03878750
S        0.79807224      20.00741172      15.15204505       0.03503340       0.00763259       0.01012819       0.00735205       0.03108199      -0.53124098
S        2.38705282      17.31902162      12.01432618      -0.01235639      -0.01462817      -0.01297686       0.04780590      -0.68687523       0.10982756
S        2.36707055      17.29953295      15.17808834       0.01183343      -0.01262943       0.00869313       0.58600395      -0.17130801      -0.10013828
S        0.76316807       9.10771686      15.16343947       0.06226206       0.02613367      -0.00978075       1.06907172      -0.49107914       0.03246696
S        3.93986720      14.58494308      11.99621846       0.03603648      -0.01224221      -0.06114369       0.28807812      -0.09146836       0.30747623
S        3.95256126      14.53847976      15.14287176      -0.03024269      -0.05612367      -0.01054538       0.56424700       0.23918854       0.28363263
S       11.78790026       6.31965476      15.19023950       0.00055268       0.05029304       0.00980790       0.30324081       0.39271918      -0.53388044
S        2.34898625       0.87923741      15.07780264      -0.00657305       0.02488211      -0.06633400      -0.07756886      -0.03826845       0.69632130
192
Lattice="25.19038208 0.0 0.0 -12.59519104 21.81550832 0.0 0.0 0.0 27.14312451" Properties=species:S:1:pos:R:3:displacements:R:3:forces:R:3 pbc="T T T"
Mo      -0.79356770      20.86683542      13.62082268       0.01490137      -0.00414800       0.01943068       0.62361916       1.21573430      -1.46215389
Mo       3.97909215      18.15894509      13.63913533       0.04569082      -0.00702459      -0.00702410       0.05097566       0.31017183      -1.80811040
Mo       5.55264967      15.44290601      13.49658018       0.04737643       0.02302300      -0.01408430      -0.49127140       0.79848977       2.30872024
Mo       7.16632388      12.68402521      13.52220031       0.01627677      -0.01390259      -0.01397192      -1.40539704       1.39537393       1.67621044
Mo       8.70267156      10.07196648      13.61309042       0.00725886      -0.05739835      -0.05174755      -0.63788303      -1.86858759      -1.29035779
Mo      10.26331044       7.28967807      13.59716473      -0.01686861      -0.03038486       0.00942735      -0.92040102      -0.78197313      -0.99144288
Mo      11.84355979       4.55333268      13.57468832      -0.02724063      -0.04236921       0.04396942      -0.38556484       0.12825697      -0.42273368
Mo      13.39331315       1.79533933      13.56314191      -0.00677319       0.00202579      -0.04274255       0.12787914      -0.29399979       0.52447162
Mo       0.74921121      18.17663943      13.54190459      -0.01633143       0.00332774      -0.03452985       1.31364775      -0.18747706       0.51448538
Mo       2.34129109      15.45804772      13.61332222       0.01127093      -0.01801917      -0.00875094       0.78784271      -0.64633523      -1.38578807
Mo       2.40194827      20.85941313      13.54187337      -0.01805105       0.05556824      -0.00040498      -0.22805628       0.52109650       1.38566417
Mo       3.97702087      12.69623774      13.56482316      -0.03173132       0.02467639      -0.03662530      -0.57700464       0.86435293       0.40842347
Mo       7.11409717       7.24278498      13.57472361       0.00626586      -0.05879018      -0.03984556      -0.38788575       0.29244598      -0.22350289
Mo       8.63197361       4.52685585      13.58115572       0.00590589       0.02215409       0.00514118       1.03707879       0.90782153      -0.08948358
Mo      10.19860340       1.83117261      13.57097324      -0.00346935      -0.00903315      -0.04435567       1.20252378      -0.67651154       0.57894739
Mo      -3.90662194      20.91324551      13.61248648      -0.02159521      -0.01381925       0.03171376      -0.40891479      -0.60649187      -0.94662730
Mo      -2.34504119      18.16670748      13.57523119       0.01030866      -0.05289126       0.00972240      -0.19184010       0.01969268      -0.45086721
Mo      -0.75809989      15.45411678      13.57277989      -0.01155256      -0.02030762       0.01835038      -0.63638304       0.03733246      -0.53198622
Mo       0.77894027      12.70582544      13.52948416       0.03092988       0.02793847      -0.02517661       0.77832428       0.04587077       1.36066120
Mo       2.42688599       9.96145806      13.55077496      -0.00927636       0.00993784       0.02926626      -0.84787574       0.82167803      -0.04928373
Mo       3.92724543       7.29868307      13.56271386      -0.01437527      -0.00556972      -0.03319007       0.48727939      -0.40003178       0.55981672
Mo       5.56062872       9.97856927      13.57993210      -0.03588622       0.02437578       0.04068727      -0.60043169       0.12389391      -0.10226011
Mo       5.49813617       4.60925128      13.53593418      -0.00216045       0.03010606       0.01084911       0.48210679      -2.10132925       0.51752018
Mo      16.55328335       1.83697161      13.58397616      -0.01935352       0.01084187       0.04614114       0.21571886      -0.01259210      -0.79111140
Mo      13.38963233       7.26794066      13.57287652      -0.00107475       0.04693934      -0.07859237       1.16765817       0.30767042      -0.04337422
Mo      13.39078089      18.20850600      13.63787806       0.02465710       0.00261132      -0.00897026       0.68674209      -0.62283327      -1.57152752
Mo      14.95286507      15.41155691      13.56891390       0.00275280      -0.05962702      -0.00659008       0.63997888       1.38275439      -0.09282123
Mo      16.62138001      12.70160218      13.62073582       0.01071334       0.04433675      -0.01554812      -2.51065041       0.69104483      -1.27898827
Mo      18.16871875       9.98216621      13.58863175      -0.02425481      -0.01505270       0.02746206      -1.47093785       0.75069796      -0.66137859
Mo      19.74163845       7.26046165      13.56545478       0.00986266      -0.01589282       0.01539802      -1.17742988       0.43350889       1.11214861
Mo      21.24973498       4.51445417      13.55208380       0.00291239       0.02905935      -0.02106171      -0.21904175       1.00446470       0.90840220
Mo      22.80486612       1.81898079      13.54846318      -0.00982992      -0.01176314      -0.04390536       1.21294214      -0.29410043      -0.12222353
Mo       8.67900784      20.85985118      13.58148876       0.00888377       0.00783155       0.00015336      -0.29153170       1.24674241      -0.07891743
Mo      10.27139895      18.11977752      13.58278403      -0.00703756      -0.04246105      -0.01261938       0.09418378       1.74540033      -0.85640976
Mo      15.00641995       4.50860761      13.62173930      -0.01028133      -0.02406840      -0.00483853      -0.76701047       1.01449567      -1.29591972
Mo      11.83336272      15.43150065      13.56988915       0.01212161       0.05658550       0.00523727       0.44096456       0.49253097      -0.23543698
Mo      14.98633969      10.00105408      13.58772489       0.00772665      -0.00223347      -0.05756324      -0.39118819      -0.35885191      -0.47671233
Mo      16.51636848       7.27691621      13.52915085      -0.00079539       0.00180698       0.07389716       1.21723578       0.21605618       1.00846041
Mo      18.11505077       4.51777951      13.54949625      -0.00577086       0.00904645      -0.00104148       0.14090805       0.05958498       1.08604204
Mo      19.72986925       1.85069771      13.58983636      -0.03506035       0.03428460       0.02255811      -0.78821296      -1.27463579      -0.98923254
Mo       5.49042703      20.89703593      13.60795521       0.02373085      -0.02728160       0.04208379       1.62095597       0.26417690      -1.27873810
Mo       7.10184696      18.24916945      13.58336191      -0.04205547       0.01760577       0.06571378       0.24359641      -2.13877672       0.00821002
Mo       8.67775575      15.44337745      13.57556858      -0.02971621      -0.01698883       0.00298954       0.05382125       0.13745343      -0.25692896
Mo      10.24181901      12.74695575      13.60026339      -0.01510440      -0.04651983       0.00205691       0.21207599      -0.36278158      -0.26857159
Mo      11.79721251       9.95883692      13.51647609      -0.03186923       0.01420779      -0.02758284       1.34757986       0.82223617       1.03656601
Mo      13.41043065      12.69261135      13.50697546       0.04649804      -0.02349770      -0.00966187       0.25619148       0.63606871       1.51775851
Mo       7.10925293       1.89274819      13.57138012       0.02440558      -0.03692602       0.00682378      -0.70027158      -1.79527296       0.74837722
Mo      11.84594683      20.90898298      13.56859551       0.03921437      -0.04822449       0.00553910      -0.37822656      -0.62664137      -0.56626290
Mo      -2.32122545       7.26312707      13.57958413       0.00779642       0.02345473      -0.03710845      -0.45850718       0.55304770       0.64082670
Mo      -0.76474801       4.52485406      13.60132360      -0.03961364       0.01565830       0.00890946      -0.57657892       0.97844531      -0.47664848
Mo      -2.35404650      12.70304004      13.58765758       0.00751479       0.01039334      -0.02040077       0.29647073       1.15368625      -0.75229864
Mo      -7.09894856      15.45349635      13.57128865       0.00696766       0.00879209      -0.02143058       0.69374361       0.49480006      -0.40501738
Mo       3.98137452       1.83219925      13.57081147       0.05597328       0.01421499      -0.03573908      -0.53800261      -0.27045353       0.30071108
Mo      -8.62186031      18.22129577      13.58829653       0.01969649      -0.02924042       0.02361262       0.11265594      -1.79009340      -0.37070243
Mo      -5.49728499      12.68635728      13.53960882       0.03475794      -0.02462055       0.02890118       0.43027539       1.38596244       0.81805588
Mo      -5.50675229      18.16130422      13.56595312       0.01238347       0.02466178       0.05690366       0.13233355       0.57000101       0.30501542
Mo      -3.92149737      10.01466477      13.56944726      -0.00736176      -0.02261199      -0.02668549       0.45356339      -0.26920914       0.79227598
Mo       0.81459499       1.81989246      13.51229822      -0.02447435      -0.00231310       0.01023459       0.36875745       0.37368094       1.86132413
Mo     -10.24897246      20.90220556      13.53527135       0.00830073       0.02481558       0.00039005       1.27054345       0.25093925       0.90857603
Mo      -7.05399670      20.95245060      13.60812512       0.04360594      -0.00793975       0.08160499      -0.02056527      -0.26972161      -0.11841791
Mo       2.36799541       4.58961863      13.57602241       0.01877011      -0.02571481      -0.03212687      -0.25397190      -1.15245649      -0.56638147
Mo       0.78988738       7.25343334      13.56248803       0.01447414      -0.00670391       0.02142000       0.16679798       0.44907770       0.01282400
Mo      -0.78604434      10.00388638      13.57637934       0.01419717      -0.00218482      -0.02540379       0.81180312      -0.46588917      -0.51262329
Mo      -3.92310527      15.46575907      13.60728152      -0.04544534      -0.01339538       0.02569205      -0.19596909      -1.02343148      -1.56791104
S       -5.46911270      14.49912502      11.92410244       0.00642279      -0.03737215       0.00519547      -0.32383476       0.42505293       1.10501488
S        7.12562152      19.95654254      11.99397726       0.01155949      -0.02651566       0.00461189      -0.53102918       0.81228726       0.17531822
S        8.63688725       0.85491967      15.15864816       0.00174620      -0.03428918       0.01073375       0.22157341       1.05984936       0.15907999
S       21.28995634       0.89168382      11.92298876       0.01682340       0.03249158       0.03161414      -0.30256138      -0.08786513       1.04442132
S       -5.51398659      14.55542605      15.09803702      -0.04132999      -0.02813481       0.01545095      -0.06440895      -0.37145937       0.33897445
S       19.69828354       3.63545847      15.15978302       0.01541349       0.01545149       0.11558194      -0.13939219       0.08512252      -0.07582932
S       18.12197145       6.33366424      15.17830141       0.01712681       0.03406688       0.02861998      -0.03328954       0.27884028      -0.97485604
S       21.26242590       0.90815998      15.11440623       0.01954182      -0.00945811       0.02276901       0.26210389      -0.25710496       0.36752164
S       19.67948446       3.60937367      11.99553174      -0.02318460      -0.00710466      -0.01456093       0.11226365       0.17399452      -0.31700195
S        8.72334203      17.22945325      15.09399758       0.00245619       0.06943985      -0.05601798      -0.71077631       0.52611600       0.80423326
S        8.71612574      17.26433058      11.98064808       0.02058785      -0.04838156      -0.01415785      -0.53086512       0.08853197       0.38053808
S       18.14958099       6.34468784      12.05550040       0.03266840       0.00192849      -0.03233235      -0.19158704       0.29110070      -0.77132802
S       -7.05166041      17.25597306      15.20712361      -0.02145918       0.02038790      -0.02191102      -0.13927343       0.11055802      -0.84278690
S       10.22821810      14.56593479      12.00969882       0.00649370       0.00136718      -0.01954794       0.36394757      -0.29414618      -0.12147607
S       10.28544171      14.59051716      15.14336441       0.06431822       0.01901767      -0.06075418      -0.37066031      -0.50695552       0.30557436
S       -7.09460069      17.28440957      11.98038859       0.00559365      -0.01985364       0.02557289       0.19681617      -0.07674843       0.42271102
S       11.88118994      11.82082939      11.98976057      -0.02377569      -0.00344205       0.01514966      -1.11479420      -0.18768261      -0.24476603
S       11.82632894      11.77631943      15.11325590       0.02597267      -0.03600890      -0.01003508       0.06198183       0.11290140      -0.19056553
S       13.43119974       9.07008795      11.96931284      -0.01424844      -0.01959993       0.05296356      -0.19260208       0.05711141       0.40517635
S       13.41128700       9.12536583      15.16397283       0.01214945      -0.03782656       0.02753589      -0.35814226      -0.44937102      -0.52596199
S       -8.61651566      19.97484509      15.09975003       0.06366479       0.03097388      -0.04558118      -0.55038519       0.85315066       0.78001502
S       15.01462610       6.35317582      11.99319526      -0.01452704       0.03800741      -0.02122999      -0.71439790      -0.40550951       0.12766503
S       15.00943197       6.37954313      15.15608097       0.01331450       0.02323897      -0.02780786      -0.39637771      -0.10019492      -0.27718595
S       -8.58144700      19.97824330      12.02855542      -0.00178562      -0.09723805      -0.03073172      -0.46341323       0.65556907      -0.36650822
S        7.09930223      20.00560671      15.18825833      -0.00757714      -0.03743345       0.04897244       0.03774116       0.20167582      -0.16164899
S       -3.90796534      11.83288224      12.03289534      -0.04290426      -0.01320144       0.00392218       0.08787740      -0.36591910      -0.71463523
S       14.95863758      11.79155712      11.96937581       0.04323816      -0.04307581       0.03489493       0.81952519       0.16142127       0.38313605
S       16.48499437       9.15148096      11.96762400       0.00030707      -0.02944526       0.01386308       0.94409747      -0.55265479       0.37032163
S       13.38854965      19.98924464      15.15162651       0.00597188      -0.01800652       0.00209409       0.21810830       0.55923760       0.35145988
S        2.39886711       0.93479344      11.98322776      -0.01155949       0.00340562       0.01986388       0.15387604      -0.25927725      -0.07241729
S       14.96457256      17.27908790      11.99325932       0.04758035      -0.03713436       0.06399100       0.00739254       0.13954979       0.76704102
S       15.01780651      17.28533957      15.16445082      -0.05856273      -0.00455355       0.01764955      -0.34490081      -0.25358938      -0.23500220
S       16.56387163      14.57887597      12.00615067       0.00842971      -0.01868106      -0.00624373      -0.22970814      -0.76483010       0.00450484
S       16.50508005      14.55566253      15.12286375      -0.01479003      -0.01768103       0.02548794       0.48219799      -0.19021862       0.51142877
S        0.78413780       3.65350863      15.17955298       0.01071057      -0.02078734       0.02698787       0.43054545      -0.46863915      -0.53340928
S       18.11902203      11.82599836      12.05178668       0.00921892       0.02438581       0.01888890       0.09684136      -0.57007092      -0.97212368
S       18.12560667      11.89478374      15.15936963      -0.02486996      -0.01680536       0.02241886       0.66364031      -1.21767456       0.56394415
S        0.74717343       3.65851790      12.01215501       0.01831114      -0.00062698       0.00351992       0.63185350       0.02392317      -0.31627748
S       19.73147552       9.10999026      11.99656644       0.03833006      -0.01774713       0.01641290      -0.19181960      -0.31789607      -0.10102793
S       19.65605375       9.08352412      15.11688874      -0.00606572      -0.00653047       0.03296342       1.00052438      -0.16068513       0.62608497
S       21.24976597       6.38051348      12.05081740       0.02476252       0.02440523       0.03916427       0.70030966      -0.39713670      -0.91854831
S       21.27902196       6.32697975      15.15574249       0.00063001       0.02045858      -0.00930792       0.13132856       0.16215883      -0.21137603
S       16.57988402       9.07150138      15.13838392       0.00972512      -0.00390432       0.00291001      -0.19202300       0.03531850      -0.12263756
S       -0.77396189       6.33930922      15.16185268       0.01785482      -0.02454659       0.06277173       0.13526511       0.19833477      -0.08978899
S       22.83795205       3.64850371      15.11577967      -0.03018047      -0.03642557       0.03474320      -0.18578947      -0.49423654       0.42552534
S       -0.78752629       6.38452776      11.98953528       0.02374987       0.01872360       0.01885036       0.09332925      -0.48199943       0.18581784
S       24.46778841       0.89699000      12.00746060      -0.00036728      -0.02691772       0.00227405      -0.80069730       0.16741493      -0.50679420
S       24.44395730       0.86642822      15.08958004      -0.02031491       0.02925351      -0.00441184      -0.26553945       0.87458126       0.30303193
S       10.20061977      20.03542654      11.98416447      -0.02476492      -0.00964158       0.01238785       0.80332518      -0.81782089       0.38373997
S       10.32313559      19.98062140      15.14794101      -0.01691169      -0.02466658       0.00731073      -0.62841007      -0.22426272      -0.12134934
S       -2.30253834       9.14997765      15.20424943       0.00734892      -0.01520825      -0.01413125      -0.56128379      -0.60694717      -0.75834876
S       11.85703942      17.30133230      12.01849591       0.00696161      -0.04344253      -0.04222384       0.03439214      -0.37879116      -0.01984885
S       11.84413929      17.25407489      15.11785829      -0.02155327      -0.00640351       0.00932719      -0.10984217      -0.28271508       0.88244397
S       -2.34890287       9.08468929      11.98712334       0.04426063       0.02572986      -0.00479809       0.00926253       0.05155839       0.38284149
S       13.41607884      14.57233110      12.00337230      -0.00057044      -0.03007595      -0.00055535      -0.29262294      -0.52803733      -0.50367783
S       13.43951320      14.50942128      15.13659465      -0.00865982       0.00968150      -0.02481696      -0.56377566      -0.28204693      -0.04061339
S       14.94808142      11.76073726      15.13992402       0.01558038       0.04598207      -0.00326287       0.36648021       0.70826870      -0.00912794
S       -3.92685284      11.86213684      15.16132882       0.01205133       0.02070423      -0.01203662      -0.08859164      -0.49727489      -0.06694029
S       22.81085501       3.69154047      12.03735115       0.00672281       0.00037784       0.00293037       0.49188977      -0.67432060      -0.77340722
S       16.56144793       3.62912325      11.97193704      -0.02319039       0.00073540       0.01493985      -0.27006899      -0.08136570       0.31537822
S        5.51202665       0.94164155      15.19894186       0.04353427       0.02877815       0.06459548       0.33908373       0.22935321      -0.51389402
S       18.16468124       0.89431367      11.96713162      -0.02302036       0.02616967       0.00550028      -0.32513081       0.14950231       0.94766454
S        7.10181824       9.03674164      15.15209934       0.06569412      -0.02424903      -0.02519153       0.22507221       0.50580345      -0.07059239
S       -0.77883057      11.80275219      15.09456325      -0.01798178      -0.06371677      -0.01577260       0.12469866       0.14861774       0.75423295
S        8.68739876       6.34687528      11.96562273      -0.02277412       0.00451188       0.01025277       0.09510115       0.00124777       0.77930934
S        8.58582295       6.36203073      15.19557204       0.05628526       0.02851265      -0.01730700       1.05995221      -0.24971504      -0.54793649
S       -0.72456494      11.80302052      11.98265369      -0.02695232       0.01475754      -0.03960698      -0.92278830      -0.10410938      -0.17027731
S       10.26045272       3.60596609      12.00977401       0.05494362       0.03538323      -0.01407534      -0.23811760       0.47248975       0.02575013
S       10.26937201       3.67272569      15.13939962      -0.05139392       0.04061611      -0.00343632      -0.43260839      -0.29835162      -0.00869028
S       11.81467813       0.88263976      11.97591378       0.03713453      -0.04783290      -0.01798123      -0.24953955      -0.02208933       0.82947901
S       11.81399396       0.92000013      15.16981186       0.00015731       0.00140950      -0.01350208      -0.14115730      -0.07950587      -0.50238538
S       -2.37289684      14.58845254      15.13427065       0.01868547      -0.03202866      -0.00427151       0.50083977      -0.64230923       0.18312717
S       -2.34944258      19.97513262      11.92799286       0.00360877       0.01543316       0.02134834      -0.06554700       0.13837350       1.23979165
S       -2.32228004      20.01965415      15.13396448      -0.03373912      -0.04602352       0.03833043      -0.46526017      -0.76485978       0.68762831
S       -2.34679179      14.55914995      11.95384370       0.00996960      -0.02245470       0.04653444       0.01690514      -0.22198121       0.98360014
S       -0.79027418      17.29443838      11.96309137       0.00347035       0.03537886       0.00202542      -0.02057141      -0.43202615       0.31552271
S        7.10639848       9.04909728      12.01471297       0.06182236       0.05266024      -0.00746897       0.48413737       0.46671668       0.12964161
S       -0.77547193      17.22215640      15.17734652       0.02914704       0.01936126       0.04105886       0.04002311       0.51121103      -0.45067255
S        0.77795860      14.51936436      15.14842145      -0.02894778       0.02058162       0.03175284       0.02196242      -0.11777599       0.08541412
S       -3.88874130      17.24013565      15.14425471      -0.05276226      -0.03549776      -0.06117707      -0.44955205       0.61435336       0.23494931
S        2.38725964      11.83752654      12.00601333      -0.00808208       0.02152623       0.04507062       0.22790078      -0.56284354      -0.25246710
S        2.36338444      11.79190552      15.14498866       0.00222280       0.04885845      -0.04140304       0.11856825       0.02597357      -0.52141191
S       -3.95536457      17.18296986      12.01381698      -0.05110134      -0.00166649       0.01152198       0.25552093       1.04254173      -0.07671732
S        3.97591212       9.01890680      11.97042815      -0.00098091      -0.06202324      -0.00267360       0.18825378       0.90114502      -0.00219795
S        3.96736867       9.15151957      15.14302811      -0.03913414       0.02009012       0.01099785       0.12544588      -0.71552058       0.12649440
S        5.50135273       6.35736941      12.04196657      -0.02819648      -0.01541593      -0.03177646       0.13607241       0.72958916      -1.10657663
S        5.50381396       6.33888055      15.12792215      -0.00188046       0.02865423      -0.02957189      -0.06288258       0.65569359       0.25728954
S       -5.52619901      20.00122899      15.19114473       0.01512141      -0.01590765      -0.02378606       0.43404820      -0.22033291      -0.48942100
S        7.10728418       3.62834705      11.99196568      -0.00321089      -0.03105721      -0.01660942      -0.28165334       0.55273873      -0.33376539
S        7.05069613       3.66241088      15.14006924      -0.03593647       0.05894179       0.00105804       0.05662346       0.25353740       0.14720953
S       -5.50301366      20.09334214      12.00968281      -0.02099190       0.00641943      -0.00336982       0.23138113      -0.93244598       0.38975133
S        8.64943685       0.89618850      12.03517346      -0.00662910       0.01842494       0.02272531       0.16104374       0.20538338      -0.27875475
S        0.80339434      14.50052361      12.02829702      -0.01591491      -0.01727461      -0.00825151       0.00591777       0.69583686      -0.52124894
S       16.52394084       3.69211662      15.17480592      -0.06905767      -0.04545567       0.04100620       0.66097939      -0.83360941       0.07037938
S        5.50977337      11.85516373      15.14444009       0.04934909      -0.00747116       0.01729668       0.66536651      -0.53163295      -0.19084777
S        0.82557951       9.10433677      11.97532939       0.00933757       0.09236643       0.03358717      -0.24300371      -0.25704855       0.42123218
S       18.09907742       0.93987798      15.13236113      -0.00383763      -0.02866623      -0.04819343       0.39989068      -0.08247784       0.19334442
S        3.93668465      19.96889535      12.01342802       0.00610401      -0.02269053      -0.04266763       0.48804702      -0.27384858      -0.09300516
S        4.01066993      19.96552289      15.14313098      -0.01939722      -0.03244642       0.05061433      -0.90974049       0.23581677       0.73266592
S        5.56555962       0.90658992      12.01429117       0.02644915      -0.00023910       0.04439828      -0.17066777       0.40000665      -0.00119505
S        5.49132117      17.28345951      11.99510587       0.00232092      -0.02583851       0.04569382       0.61338739       0.22729414       0.23747360
S        5.55276467      17.30623206      15.22009124       0.01616731      -0.03111742      -0.00571010       0.26573744      -0.65643277      -0.90289501
S        7.11498097      14.55344563      12.00655158      -0.02626853      -0.04148393       0.02778533       0.27702446      -0.33566046      -0.70927534
S        7.08699685      14.55382631      15.13354240       0.05728255      -0.04195711       0.01688899       0.11334443      -0.38306269      -0.39576558
S        3.95384773       3.67544565      15.11220818      -0.01951927      -0.01461377      -0.01777169      -0.10902530      -0.09758763       0.12668006
S        8.70618688      11.85624687      11.99717797      -0.02591977       0.00145575      -0.02492852       0.46908979      -0.45722719      -0.43612792
S        8.60833509      11.79849860      15.18131430       0.00811370      -0.00150723      -0.00716850       0.88169253       0.66937227       0.18602208
S        3.94810798       3.60593860      11.98557700      -0.02722677      -0.01730319       0.02266179      -0.20252794       0.58827973       0.01887819
S       10.27160828       9.10619676      11.99355219       0.01502757      -0.02932659       0.00298004      -0.79025749      -0.26470541      -0.16361246
S       10.23538476       9.07804210      15.11473194       0.02254149      -0.05008208       0.01630080       0.31850615       0.37074734       0.65781544
S        5.57165418      11.80706380      12.03723498      -0.01987861       0.01711797      -0.02289767      -0.27225229      -0.34983171      -0.78513095
S       11.86642774       6.39280565      11.98777152      -0.05414635      -0.04882638       0.00144266      -0.48736857      -0.30693594       0.18436184
S        2.38650707       6.36213043      15.11529326       0.00779176      -0.02712955       0.01915789      -0.28618329       0.35906465       0.54541012
S       13.40491811       3.60054646      12.03635066      -0.04984559      -0.00198238      -0.03633053       0.23796560       0.28081995      -0.23751162
S       13.38124885       3.64195251      15.15090287      -0.01955504       0.00142193      -0.02581230       0.22286016      -0.38401322       0.06367099
S        2.36662796       6.38045698      11.98647300      -0.01153669       0.03018874      -0.01730673      -0.05949453      -0.07572117      -0.07011067
S       14.99572513       0.86859973      12.00451150       0.02507073      -0.03389126       0.01589420      -0.07627767       0.33647628       0.02026120
S       15.02775407       0.87896930      15.12207199       0.04324697      -0.07414939      -0.02390685      -0.60814053       0.02045491       0.04046272
S       13.41060459      20.00293649      12.01123893       0.01731209      -0.00609133       0.01113438      -0.32099739      -0.35266201      -0.38277936
S        0.81467182      20.01659060      12.03401119      -0.01811969       0.00259779      -0.00467025      -0.51165960      -0.27820317      -0.47248901
S        0.81229082      19.99031120      15.16258147       0.03503340       0.00763259       0.01012819       0.03863138      -0.24712749      -0.23997807
S        2.43139155      17.26663146      11.97148429      -0.01235639      -0.01462817      -0.01297686      -0.60890631       0.01998643       0.75727564
S        2.40760742      17.26699905      15.07722422       0.01183343      -0.01262943       0.00869313      -1.05320873       0.22897239       1.25637252
S        0.82541904       9.07373485      15.13968842       0.06226206       0.02613367      -0.00978075      -0.07099791       0.07703570      -0.34766664
S        3.95875344      14.54938686      12.02200362       0.03603648      -0.01224221      -0.06114369      -0.45051741      -0.22497001      -0.28480242
S        3.93572943      14.55906509      15.13461808      -0.03024269      -0.05612367      -0.01054538       0.43646897      -0.22713060      -0.28377996
S       11.84295283       6.38131717      15.11434108       0.00055268       0.05029304       0.00980790      -0.14641123      -0.14224730       0.63455172
S        2.40697464       0.89290025      15.16664616      -0.00657305       0.02488211      -0.06633400      -0.33249321       0.19712501      -0.84674986
192
Lattice="25.19038208 0.0 0.0 -12.59519104 21.81550832 0.0 0.0 0.0 27.14312451" Properties=species:S:1:pos:R:3:displacements:R:3:forces:R:3 pbc="T T T"
Mo      -0.71452897      20.99982559      13.58976389       0.01490137      -0.00414800       0.01943068      -1.49293242      -2.79482441      -0.16598741
Mo       3.94330165      18.19562481      13.59819183       0.04569082      -0.00702459      -0.00702410       0.49131859      -0.86176734      -0.41173009
Mo       5.51357661      15.50650738      13.57846448       0.04737643       0.02302300      -0.01408430       0.12703981      -1.28386676       0.13042573
Mo       7.11252780      12.74569023      13.58420986       0.01627677      -0.01390259      -0.01397192      -0.30344883      -0.78521975       0.28598112
Mo       8.69716267       9.98025626      13.55481331       0.00725886      -0.05739835      -0.05174755      -0.51299185       1.40599660       0.98654764
Mo      10.21338865       7.28502046      13.59493031      -0.01686861      -0.03038486       0.00942735       1.05239899      -0.21803439      -0.69462505
Mo      11.83452526       4.59513163      13.57139423      -0.02724063      -0.04236921       0.04396942      -0.80287877      -1.83826592       0.64606873
Mo      13.41525322       1.78520733      13.55994934      -0.00677319       0.00202579      -0.04274255      -0.22870604       1.40277160       0.23464024
Mo       0.82086613      18.20506264      13.56274318      -0.01633143       0.00332774      -0.03452985      -0.65543075      -0.16548200       0.05040059
Mo       2.37225070      15.40711484      13.56085130       0.01127093      -0.01801917      -0.00875094       0.13093378       1.06317912       0.24277876
Mo       2.40111044      20.92378415      13.58658217      -0.01805105       0.05556824      -0.00040498      -0.77591027      -0.84784131      -0.19193749
Mo       3.95029085      12.72592429      13.55175265      -0.03173132       0.02467639      -0.03662530       0.41770550      -0.02534025       0.23469476
Mo       7.11856027       7.28446460      13.58632268       0.00626586      -0.05879018      -0.03984556      -0.33028515      -0.47785375      -0.22832910
Mo       8.65621319       4.48029654      13.60447682       0.00590589       0.02215409       0.00514118       0.11353610       1.93251068      -0.10429023
Mo      10.23202814       1.79207507      13.59236664      -0.00346935      -0.00903315      -0.04435567       0.58354669       0.98284804      -0.29523269
Mo      -3.93495697      20.93832615      13.59007250      -0.02159521      -0.01381925       0.03171376      -0.13613529      -1.17493984      -0.98091659
Mo      -2.32829084      18.13861085      13.60792047       0.01030866      -0.05289126       0.00972240      -0.56641070       1.07963814      -0.77085059
Mo      -0.76656147      15.44157265      13.57586389      -0.01155256      -0.02030762       0.01835038       0.31354571      -0.24351292       0.40724595
Mo       0.74671283      12.73797212      13.54068097       0.03092988       0.02793847      -0.02517661       1.88435573       0.17414003       1.67179477
Mo       2.33381862       9.95310315      13.60494286      -0.00927636       0.00993784       0.02926626       1.11387837       0.83243138      -0.78294573
Mo       3.92991989       7.31784712      13.55548809      -0.01437527      -0.00556972      -0.03319007       0.61716228      -0.99157722      -0.05824910
Mo       5.47197583       9.96527817      13.60863650      -0.03588622       0.02437578       0.04068727       1.14963977       0.82272227      -0.71986056
Mo       5.51851960       4.52844816      13.57636278      -0.00216045       0.03010606       0.01084911       0.24075663       0.34261318      -0.41674101
Mo      16.55904212       1.85148023      13.61501731      -0.01935352       0.01084187       0.04614114      -0.81216878      -0.96156142      -1.71828117
Mo      13.38439790       7.23205393      13.55915838      -0.00107475       0.04693934      -0.07859237      -0.21878826       0.46060517       0.13938873
Mo      13.40299936      18.15067679      13.54284781       0.02465710       0.00261132      -0.00897026      -0.03740307       1.38973477       0.49643163
Mo      14.97990342      15.45119132      13.57254619       0.00275280      -0.05962702      -0.00659008      -0.84394939       0.48734870      -0.31220522
Mo      16.52123375      12.71880043      13.54383528       0.01071334       0.04433675      -0.01554812       1.06033158      -0.02897966       1.16042378
Mo      18.14509370      10.02983135      13.51617670      -0.02425481      -0.01505270       0.02746206      -0.14734850      -0.74833553       1.65523585
Mo      19.66490124       7.22693950      13.55206154       0.00986266      -0.01589282       0.01539802       0.45273373       1.06049688       0.94228627
Mo      21.26468233       4.50140741      13.54390639       0.00291239       0.02905935      -0.02106171       0.29740573       1.73542920       1.39880672
Mo      22.81146550       1.82417637      13.57364250      -0.00982992      -0.01176314      -0.04390536       1.08104811      -0.22981885       0.41995372
Mo       8.65034219      20.91183274      13.55516183       0.00888377       0.00783155       0.00015336       0.91977221       0.32930523      -0.05181169
Mo      10.23824362      18.22979313      13.61177615      -0.00703756      -0.04246105      -0.01261938       0.60978788      -1.30668004      -1.19128523
Mo      14.93060244       4.56978877      13.59590420      -0.01028133      -0.02406840      -0.00483853       1.96554016      -0.68368422      -0.85866776
Mo      11.78634424      15.47721439      13.61770013       0.01212161       0.05658550       0.00523727       0.60526518      -0.54104651      -1.13481447
Mo      14.93591358       9.97124886      13.60209202       0.00772665      -0.00223347      -0.05756324       0.71969526       0.19633303      -0.27475371
Mo      16.55213366       7.28837961      13.58178001      -0.00079539       0.00180698       0.07389716      -0.20455205      -0.40679414       0.14152790
Mo      18.13010844       4.50510273      13.60298177      -0.00577086       0.00904645      -0.00104148      -0.82009170       1.31079264      -1.06699801
Mo      19.72787430       1.81107660      13.57025802      -0.03506035       0.03428460       0.02255811      -1.91575257       1.15827890      -0.12220976
Mo       5.47726329      20.92195579      13.58872403       0.02373085      -0.02728160       0.04208379       1.13855309      -0.50831131      -0.84226343
Mo       7.09572960      18.21332024      13.56153992      -0.04205547       0.01760577       0.06571378      -0.47312233      -0.93225141       0.75737088
Mo       8.68893247      15.42206108      13.57085571      -0.02971621      -0.01698883       0.00298954      -1.11571796       1.18802084       0.36080383
Mo      10.24116243      12.73247178      13.56047646      -0.01510440      -0.04651983       0.00205691       0.82387118      -0.06576411      -0.11139909
Mo      11.81684791      10.02355525      13.55845945      -0.03186923       0.01420779      -0.02758284      -0.34842523      -0.23546416       1.23405169
Mo      13.34699358      12.77819992      13.61300600       0.04649804      -0.02349770      -0.00966187       1.36402439      -1.45302039      -0.92347809
Mo       7.05882770       1.83864944      13.55647312       0.02440558      -0.03692602       0.00682378       0.68188058      -0.80725644       0.44035092
Mo      11.82869671      20.91535485      13.56453001       0.03921437      -0.04822449       0.00553910      -0.20268009      -0.23672584      -0.01865973
Mo      -2.37231091       7.25111916      13.54407658       0.00779642       0.02345473      -0.03710845       0.62753121       0.17087599       0.89026510
Mo      -0.79935355       4.54288152      13.55008932      -0.03961364       0.01565830       0.00890946      -0.16894648       0.41154568       1.44046643
Mo      -2.32833631      12.77032976      13.55416052       0.00751479       0.01039334      -0.02040077      -1.10612414      -1.39534547       0.99199161
Mo      -7.06481231      15.46764153      13.58572228       0.00696766       0.00879209      -0.02143058      -0.53667652      -0.73710184      -0.20887941
Mo       3.95107629       1.84023870      13.58602981       0.05597328       0.01421499      -0.03573908       0.12199723      -0.60718369      -0.62453524
Mo      -8.68352322      18.20566431      13.59818097       0.01969649      -0.02924042       0.02361262       0.68842504      -0.90233538      -0.77015998
Mo      -5.52049428      12.72685058      13.59206209       0.03475794      -0.02462055       0.02890118      -0.05404234      -0.18817719      -0.55201742
Mo      -5.50387517      18.21177898      13.64247855       0.01238347       0.02466178       0.05690366      -0.17217484      -0.58956040      -2.96710227
Mo      -3.94677629       9.95734256      13.58067691      -0.00736176      -0.02261199      -0.02668549       0.68298607       0.85542623       0.04108634
Mo       0.82164678       1.81103231      13.61516008      -0.02447435      -0.00231310       0.01023459      -0.33546589       0.23791991      -1.54492339
Mo     -10.26095049      20.92731564      13.55338640       0.00830073       0.02481558       0.00039005       0.72140942      -0.00638255      -0.09800339
Mo      -7.02041313      20.96630345      13.54856252       0.04360594      -0.00793975       0.08160499      -1.70642989      -1.80953048       0.40975609
Mo       2.35791196       4.57068452      13.55994825       0.01877011      -0.02571481      -0.03212687       0.92900450      -0.24056199      -0.60438186
Mo       0.79863776       7.27259696      13.51397214       0.01447414      -0.00670391       0.02142000      -0.17729290      -0.13398219       1.87757666
Mo      -0.77481421       9.97808213      13.55676843       0.01419717      -0.00218482      -0.02540379      -0.05712832       0.36807918       0.35917918
Mo      -3.87988777      15.41495577      13.59595849      -0.04544534      -0.01339538       0.02569205      -1.35384774       1.21984541       0.21501004
S       -5.50596799      14.53527899      12.02443130       0.00642279      -0.03737215       0.00519547       0.26584823       0.17479749       0.05898213
S        7.10779327      20.01466734      12.02976574       0.01155949      -0.02651566       0.00461189      -0.59535083       0.09582235      -0.57866664
S        8.66205144       0.89061202      15.10984971       0.00174620      -0.03428918       0.01073375      -0.36072783       0.51264252       0.67818964
S       21.24241932       0.99745194      12.03806040       0.01682340       0.03249158       0.03161414       0.45436774      -1.11872714      -1.12035650
S       -5.53813157      14.50399817      15.15686025      -0.04132999      -0.02813481       0.01545095       0.51037950       0.45533631       0.10890925
S       19.70920080       3.65238425      15.13475570       0.01541349       0.01545149       0.11558194       0.06587556      -0.44863675       0.39094939
S       18.11462039       6.37269262      15.14498106       0.01712681       0.03406688       0.02861998      -0.02493626      -0.32594071       0.06371996
S       21.20060266       0.90208523      15.11686214       0.01954182      -0.00945811       0.02276901       0.85661551      -0.19663073       0.68646366
S       19.69803919       3.72547537      12.01174460      -0.02318460      -0.00710466      -0.01456093      -0.29886250      -1.22199923      -0.50310795
S        8.66258472      17.29826438      15.15688495       0.00245619       0.06943985      -0.05601798      -0.03630084      -0.34209049      -0.16168267
S        8.68459343      17.28881587      12.06241647       0.02058785      -0.04838156      -0.01415785       0.04626378      -0.11596273      -0.55663447
S       18.08445730       6.37706511      11.97292885       0.03266840       0.00192849      -0.03233235       0.09530979      -0.54526578       0.46187314
S       -7.05533279      17.24304977      15.12988324      -0.02145918       0.02038790      -0.02191102      -0.56534877       0.50706066       0.63360672
S       10.23753678      14.57294630      12.02827368       0.00649370       0.00136718      -0.01954794       0.29948061      -0.26690941      -0.53017275
S       10.20901812      14.54531979      15.12111709       0.06431822       0.01901767      -0.06075418       0.23868297      -0.18546539       0.80371425
S       -7.10975321      17.26409977      11.99146570       0.00559365      -0.01985364       0.02557289       0.33148215       0.39328421       0.67368700
S       11.89359003      11.82972205      11.95939176      -0.02377569      -0.00344205       0.01514966      -0.67593290       0.13178920       0.60902133
S       11.80384526      11.84737472      15.20505775       0.02597267      -0.03600890      -0.01003508      -0.03429440      -0.16094855      -0.77561437
S       13.34760785       9.03339710      12.05684915      -0.01424844      -0.01959993       0.05296356       0.44011064       0.47891161      -0.82619461
S       13.40687578       9.06374596      15.15844323       0.01214945      -0.03782656       0.02753589      -0.61753762      -0.09173410      -0.13971486
S       -8.72546936      19.99765015      15.15223913       0.06366479       0.03097388      -0.04558118       0.78525586       0.59218622      -0.32395791
S       14.99731426       6.33243930      12.00329088      -0.01452704       0.03800741      -0.02122999      -0.17659433       0.44730589      -0.09171763
S       14.94182338       6.37051784      15.11554407       0.01331450       0.02323897      -0.02780786       0.34549916       0.17201831       0.66897871
S       -8.65864016      19.96767455      12.02025424      -0.00178562      -0.09723805      -0.03073172       0.14196386       0.68008026      -0.00907744
S        7.12334519      19.99051037      15.14355143      -0.00757714      -0.03743345       0.04897244      -0.49529220       0.34560880      -0.01032341
S       -3.96665793      11.80774292      11.99921398      -0.04290426      -0.01320144       0.00392218       0.44345013       0.00646099       0.34423384
S       15.04820992      11.78337434      12.04464560       0.04323816      -0.04307581       0.03489493      -1.64311458       0.09470001      -0.49697121
S       16.57389085       9.09821381      12.05347878       0.00030707      -0.02944526       0.01386308      -0.63120501      -0.01735751      -0.79637756
S       13.40635044      20.00922372      15.14081079       0.00597188      -0.01800652       0.00209409      -0.28240579      -0.31093593      -0.23359945
S        2.41110221       0.94187323      11.98194987      -0.01155949       0.00340562       0.01986388      -0.40097333      -0.05732713       0.32521737
S       14.93000871      17.26452103      11.97671911       0.04758035      -0.03713436       0.06399100       0.63907180      -0.05535299       0.14941739
S       14.96768042      17.30773362      15.12868541      -0.05856273      -0.00455355       0.01764955      -0.19078251      -0.55771483       0.38931395
S       16.54270050      14.54541251      12.02617307       0.00842971      -0.01868106      -0.00624373       0.14438003       0.08277832      -0.37687750
S       16.47657839      14.52547074      15.14874282      -0.01479003      -0.01768103       0.02548794       0.71697844       0.03788986      -0.01987530
S        0.83599875       3.62116059      15.08610789       0.01071057      -0.02078734       0.02698787      -0.57298373       0.57296270       0.95342409
S       18.13697534      11.79767245      11.96503020       0.00921892       0.02438581       0.01888890      -0.15598597       0.60472282      -0.02385718
S       18.09965353      11.81119762      15.12426190      -0.02486996      -0.01680536       0.02241886      -0.09897257       0.04670465       0.02302497
S        0.73382921       3.66282974      12.03896644       0.01831114      -0.00062698       0.00351992       0.75892599      -0.50735873      -0.60431814
S       19.71232844       9.05566419      11.99467538       0.03833006      -0.01774713       0.01641290      -0.11162050      -0.01208071      -0.20604917
S       19.69258736       9.10775853      15.16245444      -0.00606572      -0.00653047       0.03296342      -0.30628008      -0.47958311      -0.53589968
S       21.24515651       6.36531615      12.01443856       0.02476252       0.02440523       0.03916427       0.02321148      -0.40924861      -0.53198066
S       21.31085630       6.38399153      15.16607615       0.00063001       0.02045858      -0.00930792      -0.69456868      -0.58937717      -0.61101036
S       16.54649984       9.13210857      15.15469721       0.00972512      -0.00390432       0.00291001       0.31865150      -0.21844816      -0.28290683
S       -0.80023521       6.40495733      15.16334148       0.01785482      -0.02454659       0.06277173       0.32160594      -0.48362014      -0.71513196
S       22.82828915       3.62153298      15.15130160      -0.03018047      -0.03642557       0.03474320       0.10121151       0.05696050      -0.10736641
S       -0.76050696       6.36877500      12.01005928       0.02374987       0.01872360       0.01885036      -0.48659368      -0.25998866      -0.63891969
S       24.46697829       0.94112539      12.00643921      -0.00036728      -0.02691772       0.00227405      -0.54189364      -0.12389353       0.20301262
S       24.44421878       0.87800353      15.15434218      -0.02031491       0.02925351      -0.00441184      -0.53476954       0.33597875      -0.00574382
S       10.30066866      19.99100755      11.97529111      -0.02476492      -0.00964158       0.01238785      -0.61326397       0.26899416       0.22965343
S       10.22682684      19.96485992      15.11886150      -0.01691169      -0.02466658       0.00731073       0.13691389       1.18834902       0.63053895
S       -2.35991686       9.04762779      15.14287285       0.00734892      -0.01520825      -0.01413125       0.05294899       0.30000964      -0.21116118
S       11.84785677      17.24337765      12.04629861       0.00696161      -0.04344253      -0.04222384      -0.78298369       0.34804511      -0.54676806
S       11.83611225      17.30152776      15.12266941      -0.02155327      -0.00640351       0.00932719      -0.17042083       0.03702114       0.71519694
S       -2.32316586       9.05703682      12.02742763       0.04426063       0.02572986      -0.00479809      -0.54698488       0.34776462      -0.62470827
S       13.40034266      14.56026931      11.96545227      -0.00057044      -0.03007595      -0.00055535      -0.30457430       0.02948656       0.79845565
S       13.36833525      14.56158871      15.11395402      -0.00865982       0.00968150      -0.02481696       0.22181749       0.35804944       0.87174065
S       14.98348222      11.77571928      15.16784968       0.01558038       0.04598207      -0.00326287      -0.46986473       0.54754514      -0.33615283
S       -3.96017619      11.83330241      15.16117329       0.01205133       0.02070423      -0.01203662       0.52898044      -0.25838551      -0.50479533
S       22.82067762       3.65337839      12.00853330       0.00672281       0.00037784       0.00293037       0.22047573      -0.44713558      -0.56205606
S       16.52781978       3.60566111      11.94184128      -0.02319039       0.00073540       0.01493985       0.03166605       0.38758865       1.19506718
S        5.53368257       0.86203501      15.14526470       0.04353427       0.02877815       0.06459548      -0.14701068       0.78862278       0.16679018
S       18.11048048       0.92935353      11.99165869      -0.02302036       0.02616967       0.00550028       0.03020221      -0.02760317       0.38919663
S        7.08770823       9.11175099      15.15245600       0.06569412      -0.02424903      -0.02519153       0.18067162      -0.17144202      -0.06299220
S       -0.76491792      11.83081129      15.09633732      -0.01798178      -0.06371677      -0.01577260      -0.30957102      -0.29202327       0.55915422
S        8.69469439       6.38123034      11.97021969      -0.02277412       0.00451188       0.01025277      -0.31910672      -0.51948813       0.77414885
S        8.66466821       6.36167710      15.13836953       0.05628526       0.02851265      -0.01730700      -0.07873449      -0.28608674       0.21349868
S       -0.76438678      11.85967430      12.03317328      -0.02695232       0.01475754      -0.03960698      -0.53353790      -0.73101477      -1.11109277
S       10.20702291       3.65457977      12.04058824       0.05494362       0.03538323      -0.01407534       0.56275924      -0.44229082      -0.11533557
S       10.25799376       3.66864706      15.20277257      -0.05139392       0.04061611      -0.00343632       0.11612714      -0.52041530      -0.61604745
S       11.85149980       0.91645838      12.03207290       0.03713453      -0.04783290      -0.01798123      -0.44559339       0.35781293      -0.79959605
S       11.82513517       0.90969623      15.13186197       0.00015731       0.00140950      -0.01350208       0.11450016       0.60005321       0.76242731
S       -2.30189900      14.51911893      15.18837531       0.01868547      -0.03202866      -0.00427151      -0.22703346       0.25976469      -0.15032275
S       -2.33380565      19.95556978      12.01174976       0.00360877       0.01543316       0.02134834       0.19711314       0.55927362       0.73995617
S       -2.41180237      20.01631419      15.16896119      -0.03373912      -0.04602352       0.03833043       1.00716078      -0.01691734      -0.40528472
S       -2.36657229      14.54737830      12.05934496       0.00996960      -0.02245470       0.04653444       0.38453011       0.22203254      -1.24448822
S       -0.78957502      17.23884308      12.04517000       0.00347035       0.03537886       0.00202542       0.35272408       0.34984492      -0.55659238
S        7.15646953       9.08990559      12.03106399       0.06182236       0.05266024      -0.00746897      -0.91273076      -0.00722703      -0.25680887
S       -0.73415845      17.24833588      15.12784506       0.02914704       0.01936126       0.04105886      -0.09474470       0.25374163       0.39633374
S        0.83692261      14.59422231      15.15929091      -0.02894778       0.02058162       0.03175284      -0.41334354      -0.74181309      -0.17991362
S       -3.94959484      17.33022214      15.12647515      -0.05276226      -0.03549776      -0.06117707       0.54328188      -1.06634930       0.67545470
S        2.36434105      11.82700340      12.04734498      -0.00808208       0.02152623       0.04507062      -0.17375337      -0.49718752      -0.44060868
S        2.40001441      11.82917928      15.15630300       0.00222280       0.04885845      -0.04140304      -0.61075567      -0.13712003      -0.47447532
S       -3.92189499      17.28735467      11.92483340      -0.05110134      -0.00166649       0.01152198      -0.04083634      -0.26388456       1.62925149
S        3.93989579       9.09703446      11.96618975      -0.00098091      -0.06202324      -0.00267360      -0.19494349       0.16182230       0.44770020
S        3.96038363       9.08366069      15.19506854      -0.03913414       0.02009012       0.01099785      -0.59035458      -0.13215790      -0.25873422
S        5.57038357       6.34888209      11.99619512      -0.02819648      -0.01541593      -0.03177646      -0.40683496       0.29563855       0.36342452
S        5.52097453       6.34930640      15.14825506      -0.00188046       0.02865423      -0.02957189      -0.07696697       0.30685307      -0.36743954
S       -5.52034754      19.96363040      15.16108562       0.01512141      -0.01590765      -0.02378606       0.16644322       1.02352594       0.28397334
S        7.11647766       3.61178821      12.02758071      -0.00321089      -0.03105721      -0.01660942      -0.33740748       0.35645663      -0.53236411
S        7.07864460       3.64351254      15.16701476      -0.03593647       0.05894179       0.00105804      -0.10457872      -0.37873927       0.07053545
S       -5.49860774      20.01119126      11.98522713      -0.02099190       0.00641943      -0.00336982       0.29446213      -0.11285765       0.40879346
S        8.66609676       0.90280340      11.97832273      -0.00662910       0.01842494       0.02272531      -0.04932117       0.12582679       0.30968751
S        0.79469307      14.49721333      11.98598550      -0.01591491      -0.01727461      -0.00825151      -0.07550329       0.64246852      -0.23102573
S       16.53543887       3.62823230      15.13515932      -0.06905767      -0.04545567       0.04100620      -0.06971195       0.40015518       0.57896774
S        5.52134004      11.83111649      15.16863982       0.04934909      -0.00747116       0.01729668      -0.02669535      -0.19490964      -0.40694181
S        0.78050321       9.05369883      11.96945887       0.00933757       0.09236643       0.03358717       0.14032104       0.56870382      -0.04401213
S       18.10376787       0.89842153      15.11930448      -0.00383763      -0.02866623      -0.04819343       0.35588560       0.28163635       0.65321437
S        3.90991042      19.98386537      12.00616289       0.00610401      -0.02269053      -0.04266763       0.39658657       0.09651876      -0.04290583
S        3.96664483      19.98082625      15.13001434      -0.01939722      -0.03244642       0.05061433      -0.33837928       0.29205500       0.73696503
S        5.49539193       0.90803607      11.97526723       0.02644915      -0.00023910       0.04439828       0.16778313       0.42065483       0.03540813
S        5.54038674      17.21703434      11.98993130       0.00232092      -0.02583851       0.04569382      -0.20465210       1.17138494       0.11038222
S        5.53222619      17.27612535      15.22319533       0.01616731      -0.03111742      -0.00571010      -0.06795546       0.28260005      -0.92264853
S        7.10808586      14.51355031      11.99785628      -0.02626853      -0.04148393       0.02778533      -0.20079526       0.55145365       0.10191241
S        7.04430432      14.54125382      15.11741260       0.05728255      -0.04195711       0.01688899       0.55730075       0.32411712       0.43492294
S        3.97625571       3.61943149      15.13890127      -0.01951927      -0.01461377      -0.01777169      -0.51668574       0.41920349       0.09032843
S        8.65292395      11.86889877      11.99108298      -0.02591977       0.00145575      -0.02492852       0.27600194      -0.58826199       0.08521969
S        8.72696743      11.84115795      15.15686649       0.00811370      -0.00150723      -0.00716850      -0.54641591      -0.34788527      -0.32399607
S        3.95985589       3.64773166      11.94289009      -0.02722677      -0.01730319       0.02266179      -0.25489849       0.05388748       0.79643422
S       10.23802320       9.11514941      11.99925334       0.01502757      -0.02932659       0.00298004       0.31489284      -0.30620161      -0.06101289
S       10.20423371       9.08822274      15.19352762       0.02254149      -0.05008208       0.01630080       0.53987572       0.11956960      -0.60331616
S        5.56059976      11.81487310      12.02926359      -0.01987861       0.01711797      -0.02289767      -0.33012515      -0.26774634      -0.06579068
S       11.80979322       6.31174009      11.97298612      -0.05414635      -0.04882638       0.00144266      -0.25432287       0.85102154       0.12677565
S        2.42128189       6.35463636      15.13510286       0.00779176      -0.02712955       0.01915789      -0.63389847       0.29563754      -0.22228419
S       13.38619221       3.69304182      12.04949879      -0.04984559      -0.00198238      -0.03633053       0.04371570      -0.74696841      -0.64222148
S       13.46175076       3.63114642      15.15127310      -0.01955504       0.00142193      -0.02581230      -0.99279877      -0.18032210       0.11040874
S        2.32889591       6.40716418      11.96568679      -0.01153669       0.03018874      -0.01730673       0.74190600      -0.44042925      -0.01408331
S       14.97608960       0.87605998      11.98305405       0.02507073      -0.03389126       0.01589420       0.40023338       0.47271388       0.34640452
S       14.94446824       0.89074291      15.12623059       0.04324697      -0.07414939      -0.02390685       0.52074675       0.27434173       0.60578469
S       13.37873939      20.02254885      11.96757432       0.01731209      -0.00609133       0.01113438       0.06976578      -0.34562218       0.22284017
S        0.80661253      20.03408772      11.98532430      -0.01811969       0.00259779      -0.00467025       0.13980908      -0.00320573       0.35694362
S        0.77845863      19.99063320      15.17779601       0.03503340       0.00763259       0.01012819       0.44938508       0.32096397      -0.36163126
S        2.38021829      17.25467394      12.01523656      -0.01235639      -0.01462817      -0.01297686       0.02492583       0.08503357      -0.01085155
S        2.34132649      17.29105108      15.15466247       0.01183343      -0.01262943       0.00869313       0.38686578      -0.42277969      -0.28755344
S        0.79076199       9.06463713      15.11580383       0.06226206       0.02613367      -0.00978075      -0.30969658      -0.17405235       0.44657635
S        3.96483855      14.58054137      11.98160080       0.03603648      -0.01224221      -0.06114369      -0.00790341      -0.41565309       0.08759386
S        3.96254560      14.48106112      15.12486583      -0.03024269      -0.05612367      -0.01054538      -0.17246481       0.72676155       0.10624758
S       11.81985677       6.33556568      15.11430905       0.00055268       0.05029304       0.00980790      -0.17542136       0.69750761       0.66299326
S        2.35436188       0.91774484      15.13678438      -0.00657305       0.02488211      -0.06633400       0.53968122      -0.21624846       0.41506135
192
Lattice="25.19038208 0.0 0.0 -12.59519104 21.81550832 0.0 0.0 0.0 27.14312451" Properties=species:S:1:pos:R:3:displacements:R:3:forces:R:3 pbc="T T T"
Mo      -0.84154593      20.84290708      13.55335627       0.01490137      -0.00414800       0.01943068       1.66232997       1.67615421       1.36742613
Mo       3.96252821      18.09716444      13.55657029       0.04569082      -0.00702459      -0.00702410      -0.64517659       1.96613615       0.35322856
Mo       5.50740900      15.49430117      13.56001149       0.04737643       0.02302300      -0.01408430       0.64674806      -0.99548900       0.11860311
Mo       7.10908516      12.72995012      13.50764535       0.01627677      -0.01390259      -0.01397192      -0.51724603      -0.54413717       2.48828526
Mo       8.69504038      10.00523589      13.58681044       0.00725886      -0.05739835      -0.05174755      -0.67559450      -0.01399406      -0.36679218
Mo      10.36418029       7.20931191      13.62330302      -0.01686861      -0.03038486       0.00942735      -3.82831789       2.22920596      -0.60053385
Mo      11.81216854       4.55351680      13.57019695      -0.02724063      -0.04236921       0.04396942       0.65460555      -0.16104172      -0.01404448
Mo      13.38246403       1.80086323      13.58144750      -0.00677319       0.00202579      -0.04274255       0.20230767       0.47418115      -0.01612323
Mo       0.75448481      18.20210685      13.55907641      -0.01633143       0.00332774      -0.03452985       1.23224613      -0.71555010       0.72902192
Mo       2.34049659      15.43915069      13.60927681       0.01127093      -0.01801917      -0.00875094       0.50423067       0.46025520      -1.26362620
Mo       2.35833881      20.91728160      13.54963359      -0.01805105       0.05556824      -0.00040498      -0.03849839      -0.27894774       1.72600488
Mo       3.97153541      12.74627772      13.62702054      -0.03173132       0.02467639      -0.03662530      -0.16684633      -0.74282162      -1.62749361
Mo       7.09232852       7.29189496      13.57450429       0.00626586      -0.05879018      -0.03984556       0.39666577      -0.73878827       0.32556837
Mo       8.71087065       4.52333177      13.59391244       0.00590589       0.02215409       0.00514118      -0.82052930       0.84678726      -0.92040373
Mo      10.24055219       1.81603265      13.57431483      -0.00346935      -0.00903315      -0.04435567       0.16794997       0.14280637       0.13380956
Mo      -3.91562965      20.90304131      13.57800358      -0.02159521      -0.01381925       0.03171376      -0.68632236       0.23282332      -0.35575126
Mo      -2.30145427      18.20915304      13.59763702       0.01030866      -0.05289126       0.00972240      -1.77791806      -0.53448716       0.21280352
Mo      -0.78806498      15.42597369      13.60022132      -0.01155256      -0.02030762       0.01835038       0.77284116       0.41417378      -0.33041735
Mo       0.82628143      12.76989257      13.55344286       0.03092988       0.02793847      -0.02517661      -0.50834539      -1.04712997       0.50505190
Mo       2.36751239       9.94958933      13.55978811      -0.00927636       0.00993784       0.02926626      -0.08876787       0.57498224       0.28890458
Mo       3.97869477       7.25784051      13.59077660      -0.01437527      -0.00556972      -0.03319007      -0.54802128      -0.05585801      -0.03497491
Mo       5.51748150      10.00849556      13.53713147      -0.03588622       0.02437578       0.04068727       0.25936960      -0.36028472       0.72867963
Mo       5.52575289       4.45516267      13.56595529      -0.00216045       0.03010606       0.01084911       0.14699155       2.25252859       0.42574884
Mo      16.49507442       1.85413823      13.59488444      -0.01935352       0.01084187       0.04614114       0.64161480      -0.97420003      -0.70491625
Mo      13.40919103       7.31746557      13.54309481      -0.00107475       0.04693934      -0.07859237      -0.31056854      -1.39962967       0.55915290
Mo      13.44761190      18.20755528      13.56446568       0.02465710       0.00261132      -0.00897026      -1.40703276      -0.68442163      -0.09755160
Mo      15.00365833      15.41946219      13.54682672       0.00275280      -0.05962702      -0.00659008      -1.01886142       0.62089044       0.88619876
Mo      16.52573112      12.70984320      13.53986559       0.01071334       0.04433675      -0.01554812       0.47118966       0.62328528       0.06461668
Mo      18.15508005       9.99100825      13.58213748      -0.02425481      -0.01505270       0.02746206      -1.22723552       0.24519909      -0.01131253
Mo      19.67567592       7.21721720      13.57966393       0.00986266      -0.01589282       0.01539802       0.08765878       1.47660485      -0.90770417
Mo      21.20981780       4.54283789      13.53051289       0.00291239       0.02905935      -0.02106171       1.75276246      -0.06129486       0.84671157
Mo      22.90120258       1.84529924      13.57473474      -0.00982992      -0.01176314      -0.04390536      -1.42541958      -1.55026102       0.21539342
Mo       8.70990548      20.88113854      13.58786658       0.00888377       0.00783155       0.00015336      -0.36661916       0.74923439       0.10997231
Mo      10.25238764      18.18751010      13.60973281      -0.00703756      -0.04246105      -0.01261938      -0.00494958      -0.29060920      -0.70751673
Mo      14.99156468       4.55355847      13.52191558      -0.01028133      -0.02406840      -0.00483853      -1.22313715       0.49593896       1.59505248
Mo      11.79199079      15.44896963      13.57436342       0.01212161       0.05658550       0.00523727       0.31750099      -0.25395669       0.13995537
Mo      14.93568385      10.07112418      13.61705413       0.00772665      -0.00223347      -0.05756324       0.68827660      -1.37478299      -1.65635059
Mo      16.56205225       7.27399642      13.56519610      -0.00079539       0.00180698       0.07389716      -0.77167519       0.18201646      -0.14936694
Mo      18.08983016       4.54722128      13.57929478      -0.00577086       0.00904645      -0.00104148       0.62417060      -0.55503960       0.12876000
Mo      19.65553357       1.82798362      13.56690449      -0.03506035       0.03428460       0.02255811       1.12183813      -0.97188762      -0.36030349
Mo       5.46596238      20.88071663      13.55915404       0.02373085      -0.02728160       0.04208379       1.51817861       0.17571324      -0.00162773
Mo       7.15422607      18.19628604      13.53149791      -0.04205547       0.01760577       0.06571378      -1.03662093      -0.58277895       0.98943690
Mo       8.68657528      15.40623196      13.60404307      -0.02971621      -0.01698883       0.00298954       0.16530704       1.46298121      -0.79869774
Mo      10.23225952      12.72290328      13.61133616      -0.01510440      -0.04651983       0.00205691       0.30454049       0.09070701      -0.66894131
Mo      11.78217712       9.95686044      13.55405439      -0.03186923       0.01420779      -0.02758284       1.14415938       1.65204872       1.69757118
Mo      13.42634240      12.68013201      13.48659748       0.04649804      -0.02349770      -0.00966187      -0.92273580       1.11636295       1.66134282
Mo       7.08406066       1.83451060      13.60757005       0.02440558      -0.03692602       0.00682378       0.76399499      -0.65773185      -0.85790738
Mo      11.80689733      20.89418530      13.60617923       0.03921437      -0.04822449       0.00553910       0.16714033       0.21096161      -0.22828065
Mo      -2.40489001       7.26017979      13.57727506       0.00779642       0.02345473      -0.03710845       1.57607740      -0.14051668       0.46409880
Mo      -0.76092247       4.52960264      13.57259559      -0.03961364       0.01565830       0.00890946      -0.91502387       0.80100118       0.12730452
Mo      -2.42344776      12.70596506      13.58516747       0.00751479       0.01039334      -0.02040077       1.92704257      -0.10839190      -0.05164043
Mo      -7.10146331      15.45442046      13.58496851       0.00696766       0.00879209      -0.02143058       0.62073294      -0.56205564      -0.86581687
Mo       3.93852127       1.82307229      13.54268034       0.05597328       0.01421499      -0.03573908       0.19245846      -0.24387909       0.61513256
Mo      -8.65259157      18.19789602      13.57627131       0.01969649      -0.02924042       0.02361262      -0.72687648      -0.43993783       0.34784265
Mo      -5.51519158      12.73243905      13.59300043       0.03475794      -0.02462055       0.02890118       0.84513534       0.27583194      -0.93820605
Mo      -5.55909388      18.21436172      13.56147451       0.01238347       0.02466178       0.05690366       1.89180520      -0.46458500       0.21235043
Mo      -3.91043199      10.03469141      13.53041192      -0.00736176      -0.02261199      -0.02668549      -0.59253750      -0.55125992       1.68564035
Mo       0.77871658       1.80930191      13.54804952      -0.02447435      -0.00231310       0.01023459       1.29671094      -0.75941599       1.44982407
Mo     -10.16874399      20.88082483      13.55489583       0.00830073       0.02481558       0.00039005      -1.99249299       0.79379979       0.86138871
Mo      -7.06586288      20.87046355      13.55969175       0.04360594      -0.00793975       0.08160499      -0.83564174       1.53359384      -0.00372757
Mo       2.38392254       4.53491101      13.56876054       0.01877011      -0.02571481      -0.03212687       0.01982910       0.14677362       0.32473217
Mo       0.78412004       7.22640131      13.58121000       0.01447414      -0.00670391       0.02142000       0.32591293       1.79425841      -0.25806925
Mo      -0.72175093       9.99932607      13.57832007       0.01419717      -0.00218482      -0.02540379      -1.38980092      -0.35584096       0.33477665
Mo      -3.90241515      15.41457116      13.62263774      -0.04544534      -0.01339538       0.02569205      -0.60878904       1.20596624      -1.20889635
S       -5.49152937      14.59262760      11.97872906       0.00642279      -0.03737215       0.00519547      -0.04872292      -0.31067237       0.69826995
S        7.15213364      20.02080361      12.01731138       0.01155949      -0.02651566       0.00461189      -0.56760349       0.02115567      -0.28148432
S        8.67901137       0.90152326      15.17842030       0.00174620      -0.03428918       0.01073375      -0.15525203       0.19919695      -0.27033397
S       21.27139242       0.84996711      11.96720463       0.01682340       0.03249158       0.03161414       0.19594632       0.70690204       0.92906974
S       -5.50317463      14.55297180      15.14070683      -0.04132999      -0.02813481       0.01545095      -0.12191089      -0.14719993       0.33760394
S       19.72935184       3.57738472      15.14671197       0.01541349       0.01545149       0.11558194      -0.72014079       0.63405297      -0.00057887
S       18.06384464       6.38564755      15.13957062       0.01712681       0.03406688       0.02861998       0.51295631      -0.39879357       0.32503046
S       21.27976986       0.88306276      15.18078827       0.01954182      -0.00945811       0.02276901       0.04084418       0.40885620      -0.88198921
S       19.72403466       3.65342398      11.99683461      -0.02318460      -0.00710466      -0.01456093      -1.07808794      -0.44817415      -0.37396522
S        8.68938640      17.24940353      15.16807090       0.00245619       0.06943985      -0.05601798      -0.19599434       0.07523777      -0.29079153
S        8.72147504      17.30272871      11.97883221       0.02058785      -0.04838156      -0.01415785      -0.06836498      -0.69810703       0.46075308
S       18.12922653       6.32406193      12.01789198       0.03266840       0.00192849      -0.03233235      -0.20801952       0.25077565      -0.45004821
S       -7.05848008      17.21451596      15.10755096      -0.02145918       0.02038790      -0.02191102      -0.49359376       0.94562493       0.84921915
S       10.23789524      14.53464612      11.96443576       0.00649370       0.00136718      -0.01954794      -0.01925076      -0.17810728       0.57060791
S       10.25805900      14.55121609      15.13657619       0.06431822       0.01901767      -0.06075418      -0.04552162      -0.29944889       0.60222685
S       -7.09467186      17.30207163      12.05038230       0.00559365      -0.01985364       0.02557289      -0.12677085      -0.33369074      -0.86186050
S       11.80628168      11.79836836      12.01545642      -0.02377569      -0.00344205       0.01514966      -0.32707960      -0.07542549      -0.28201824
S       11.81004739      11.81255150      15.16459386       0.02597267      -0.03600890      -0.01003508       0.37019342      -0.17924937      -0.65588203
S       13.33790653       9.12934389      12.00290056      -0.01424844      -0.01959993       0.05296356       0.72633145      -0.03565751      -0.18490523
S       13.38284240       9.08711779      15.14127711       0.01214945      -0.03782656       0.02753589      -0.08646299       0.22631998       0.13755067
S       -8.69833289      20.04239703      15.14364426       0.06366479       0.03097388      -0.04558118       1.01702717      -0.73741841       0.31149056
S       14.98287639       6.39140270      11.97008533      -0.01452704       0.03800741      -0.02122999      -0.03461187       0.04377150       0.18248615
S       14.98379043       6.35482703      15.16780761       0.01331450       0.02323897      -0.02780786      -0.14662757       0.20832167      -0.84363243
S       -8.71021394      19.99457613      11.98263550      -0.00178562      -0.09723805      -0.03073172       1.05050884      -0.27202398      -0.29448166
S        7.11055968      20.01165026      15.12117545      -0.00757714      -0.03743345       0.04897244      -0.28715352      -0.24293290       0.06290705
S       -3.94456558      11.81341343      11.97382077      -0.04290426      -0.01320144       0.00392218      -0.23988796       0.31134834      -0.01414363
S       14.99484560      11.80565714      11.91351038       0.04323816      -0.04307581       0.03489493      -0.13835311      -0.13912712       0.35330859
S       16.53274047       9.05863852      11.95178191       0.00030707      -0.02944526       0.01386308       0.04755202       0.65334268       1.09332930
S       13.35806451      20.00083129      15.18226350       0.00597188      -0.01800652       0.00209409       0.70725463      -0.04058478      -0.50834633
S        2.38379067       0.89078414      12.01439730      -0.01155949       0.00340562       0.01986388      -0.08969965       0.15274932      -0.35019183
S       14.95581348      17.24977243      11.96608932       0.04758035      -0.03713436       0.06399100       0.36928738       0.12257880       0.37885383
S       14.91703138      17.25891270      15.14714599      -0.05856273      -0.00455355       0.01764955       0.83562723      -0.14593543      -0.23251984
S       16.54108642      14.53119294      11.97234771       0.00842971      -0.01868106      -0.00624373       0.16436457       0.05407686       0.02283689
S       16.56223249      14.50415786      15.16568529      -0.01479003      -0.01768103       0.02548794      -0.30716778       0.15424218      -0.35982391
S        0.76992992       3.61334453      15.09840074       0.01071057      -0.02078734       0.02698787       0.54981819       0.08409722       0.69279339
S       18.10334178      11.84599271      12.01618902       0.00921892       0.02438581       0.01888890       0.38675288      -0.53521635      -0.23664122
S       18.14773667      11.83239750      15.10929436      -0.02486996      -0.01680536       0.02241886      -0.55622040      -0.32966182       0.57096695
S        0.79007265       3.61251161      12.04063737       0.01831114      -0.00062698       0.00351992       0.19582466       0.25334568      -0.88068287
S       19.65687924       9.11660559      12.02750879       0.03833006      -0.01774713       0.01641290       0.52766966      -0.66053566      -0.39051460
S       19.74767155       9.07750413      15.16377414      -0.00606572      -0.00653047       0.03296342      -0.23523669       0.00185391      -0.51249730
S       21.33563129       6.34432701      11.95466885       0.02476252       0.02440523       0.03916427      -1.03186641       0.12510027       0.08117890
S       21.21078146       6.38423761      15.08590975       0.00063001       0.02045858      -0.00930792       0.36308362      -0.79378215       1.04960169
S       16.53281541       9.10291418      15.14795974       0.00972512      -0.00390432       0.00291001       0.14157945       0.11076338      -0.22231002
S       -0.76163926       6.36952501      15.18077035       0.01785482      -0.02454659       0.06277173      -0.50493920      -0.33503488      -0.44642915
S       22.81301118       3.61560789      15.11922467      -0.03018047      -0.03642557       0.03474320       0.09804403       0.58888844       0.11649100
S       -0.74949687       6.38986819      12.01425697       0.02374987       0.01872360       0.01885036      -0.61129281      -0.53289661      -0.06077269
S       24.45148432       0.87363803      12.05073679      -0.00036728      -0.02691772       0.00227405      -0.51350559       0.06165171      -0.86285691
S       24.46167660       0.93104772      15.19585840      -0.02031491       0.02925351      -0.00441184      -0.39823634      -0.20621264      -0.49523458
S       10.19669070      19.98181559      11.97866093      -0.02476492      -0.00964158       0.01238785       0.82981251      -0.05424386       0.42395781
S       10.26803389      19.96604472      15.16512913      -0.01691169      -0.02466658       0.00731073      -0.21278472       0.26415294       0.35273369
S       -2.30768549       9.11065083      15.15091699       0.00734892      -0.01520825      -0.01413125      -0.42776293      -0.06882040      -0.37695845
S       11.79115221      17.24520492      12.03820860       0.00696161      -0.04344253      -0.04222384       0.47350376       0.60752327      -0.22732266
S       11.84416889      17.26943977      15.12986695      -0.02155327      -0.00640351       0.00932719       0.16871690       0.12060334       0.14302863
S       -2.40957580       9.05766925      12.05806271       0.04426063       0.02572986      -0.00479809       1.01042624       0.38171690      -0.88177351
S       13.35677362      14.54935632      12.03094348      -0.00057044      -0.03007595      -0.00055535       0.37773619      -0.03664986      -0.58139637
S       13.35753966      14.54921321      15.17054174      -0.00865982       0.00968150      -0.02481696       0.48094186      -0.42704731      -0.98511893
S       14.96996103      11.90278546      15.09234647       0.01558038       0.04598207      -0.00326287      -0.21031228      -0.51334846       0.86625859
S       -3.89143844      11.81154929      15.16556206       0.01205133       0.02070423      -0.01203662      -0.83588651      -0.10457013       0.04569616
S       22.85481978       3.61392308      12.00759007       0.00672281       0.00037784       0.00293037      -0.06435859       0.30047935      -0.24992657
S       16.48824796       3.65401518      12.00966490      -0.02319039       0.00073540       0.01493985       0.84422673      -0.31379390      -0.59395762
S        5.54235285       0.94072268      15.15343288       0.04353427       0.02877815       0.06459548      -0.53325393      -0.50709282      -0.35392899
S       18.12282679       0.88254704      11.97935363      -0.02302036       0.02616967       0.00550028      -0.59161051       0.37166766       0.32248402
S        7.13319387       9.13288476      15.13526110       0.06569412      -0.02424903      -0.02519153      -0.57469989      -0.32964414      -0.02570463
S       -0.77302242      11.78959482      15.17758701      -0.01798178      -0.06371677      -0.01577260       0.14812562       0.56000097      -0.73517792
S        8.69195330       6.42109273      11.97437042      -0.02277412       0.00451188       0.01025277       0.16755660      -0.59856577       0.97154370
S        8.66065047       6.36979967      15.16179894       0.05628526       0.02851265      -0.01730700       0.34870472      -0.10105768      -0.33017713
S       -0.78087262      11.79054445      12.02716244      -0.02695232       0.01475754      -0.03960698       0.00098575       0.54642663      -0.03117571
S       10.26802369       3.60842950      12.04138354       0.05494362       0.03538323      -0.01407534      -0.26120008       0.23713926      -0.74720575
S       10.28149563       3.63994658      15.14479241      -0.05139392       0.04061611      -0.00343632      -0.24531326      -0.18524882       0.32208063
S       11.83741019       0.88312799      12.00162103       0.03713453      -0.04783290      -0.01798123      -0.31497752      -0.03314753       0.01534786
S       11.75621705       0.93527273      15.09555967       0.00015731       0.00140950      -0.01350208       0.70234767      -0.86961852       0.56587093
S       -2.30369898      14.53376826      15.13605423       0.01868547      -0.03202866      -0.00427151      -0.57936067      -0.39986760       0.79768317
S       -2.36763356      19.98890781      12.04327595       0.00360877       0.01543316       0.02134834      -0.13314132      -0.23488858      -1.22394144
S       -2.42343580      20.03585784      15.15254503      -0.03373912      -0.04602352       0.03833043       0.72189203      -0.50090195       0.53252657
S       -2.38501215      14.51141239      12.05101202       0.00996960      -0.02245470       0.04653444       0.28863352       0.14785998      -0.50647400
S       -0.80276785      17.23600990      12.03483960       0.00347035       0.03537886       0.00202542       0.21793956       0.15304688      -0.40880682
S        7.10774844       9.06165691      12.00721903       0.06182236       0.05266024      -0.00746897       0.06741337       0.45667184      -0.21069010
S       -0.80517504      17.30363492      15.17424542       0.02914704       0.01936126       0.04105886       0.48963384      -0.39229440      -0.06203692
S        0.81595640      14.55452157      15.19524008      -0.02894778       0.02058162       0.03175284      -0.31572235      -0.24864216      -0.30379672
S       -3.92320968      17.23515408      15.15588852      -0.05276226      -0.03549776      -0.06117707      -0.12979033       0.65231595      -0.31687842
S        2.43697651      11.78629042      11.98987620      -0.00808208       0.02152623       0.04507062      -0.34978636       0.29767206       0.48649075
S        2.38688846      11.81511613      15.11293534       0.00222280       0.04885845      -0.04140304      -0.26901265      -0.24195653       0.22244971
S       -3.88954462      17.34021168      12.00660397      -0.05110134      -0.00166649       0.01152198      -0.34462339      -0.68622289       0.68029525
S        3.92167206       9.04332599      12.00845947      -0.00098091      -0.06202324      -0.00267360       0.29006217       0.12909467      -0.26131756
S        3.98191032       9.10404990      15.14233216      -0.03913414       0.02009012       0.01099785      -0.18857595      -0.16061390      -0.10742132
S        5.50551469       6.33009130      12.02576267      -0.02819648      -0.01541593      -0.03177646       0.40410946      -0.08205208       0.03944116
S        5.55060610       6.31648431      15.19009944      -0.00188046       0.02865423      -0.02957189      -0.09817612       0.03286975      -0.69967612
S       -5.48037708      20.03953680      15.10214052       0.01512141      -0.01590765      -0.02378606      -0.44597007      -0.52776556       0.74319888
S        7.05661712       3.63144856      12.01580358      -0.00321089      -0.03105721      -0.01660942       0.96986625      -0.25613808      -0.28508292
S        7.15148259       3.65710011      15.13512403      -0.03593647       0.05894179       0.00105804      -0.33175654      -0.33553550       0.51585857
S       -5.52839045      20.03444899      11.97177906      -0.02099190       0.00641943      -0.00336982       0.35281191      -0.33205356       0.02489034
S        8.72084466       0.90044754      12.04843749      -0.00662910       0.01842494       0.02272531      -0.84997456       0.23528971      -0.54460854
S        0.82036409      14.53956203      11.98513837      -0.01591491      -0.01727461      -0.00825151      -0.30823262       0.25434906       0.20647698
S       16.53375791       3.64876724      15.14471913      -0.06905767      -0.04545567       0.04100620      -0.18505450       0.09554524       0.17055970
S        5.50537866      11.81176439      15.14476174       0.04934909      -0.00747116       0.01729668       0.63273978       0.03317913      -0.08646130
S        0.73613413       9.10353985      11.97132849       0.00933757       0.09236643       0.03358717       0.76522605      -0.62399370       0.26660641
S       18.08378396       0.85835888      15.08858769      -0.00383763      -0.02866623      -0.04819343      -0.00340410       0.56932438       0.53375931
S        3.90813047      19.97627837      12.05931781       0.00610401      -0.02269053      -0.04266763       0.16815985      -0.38426878      -1.02496697
S        3.93301756      20.00288151      15.15441872      -0.01939722      -0.03244642       0.05061433      -0.13177827      -0.67217901      -0.36782734
S        5.52712489       0.90665580      11.96486137       0.02644915      -0.00023910       0.04439828       0.03290757      -0.01284964       0.66309400
S        5.56672064      17.32482629      11.95024045       0.00232092      -0.02583851       0.04569382      -0.01881613      -0.54021936       0.22519125
S        5.49247212      17.26221600      15.11346816       0.01616731      -0.03111742      -0.00571010       0.90554446       0.24869774       0.34628636
S        7.11277077      14.52182362      12.06567175      -0.02626853      -0.04148393       0.02778533      -0.20748616       0.83843453      -1.16377716
S        7.13330811      14.55004918      15.17321398       0.05728255      -0.04195711       0.01688899      -0.69331980      -0.24140979      -0.48479356
S        3.98197103       3.61899933      15.11791773      -0.01951927      -0.01461377      -0.01777169      -0.63692649      -0.24750432       0.43371291
S        8.67433502      11.84258229      12.00489205      -0.02591977       0.00145575      -0.02492852       0.36887484      -0.39420226      -0.32885300
S        8.62468088      11.79264855      15.14018514       0.00811370      -0.00150723      -0.00716850       0.28555151       0.46697466       0.10754941
S        3.94652413       3.69509400      11.95914041      -0.02722677      -0.01730319       0.02266179      -0.17134476      -0.88756510       0.17050750
S       10.26155719       9.13446813      12.06886351       0.01502757      -0.02932659       0.00298004      -0.47240763      -1.30268499      -1.15910598
S       10.23425762       9.10453769      15.15949720       0.02254149      -0.05008208       0.01630080       0.29374329      -0.51411894       0.22743220
S        5.52905737      11.81376793      12.01379934      -0.01987861       0.01711797      -0.02289767      -0.29754485       0.20463522      -0.52262282
S       11.74482105       6.38331830      12.00450553      -0.05414635      -0.04882638       0.00144266       1.49525176      -0.40033795      -0.64147412
S        2.36772097       6.42426209      15.12215640       0.00779176      -0.02712955       0.01915789       0.25153919      -0.91947646       0.39257695
S       13.38309518       3.69566426      11.97575825      -0.04984559      -0.00198238      -0.03633053      -0.01304035      -0.71456248       0.29195155
S       13.37868384       3.63150703      15.16762629      -0.01955504       0.00142193      -0.02581230       0.35281037       0.08543146      -0.71083693
S        2.38062928       6.32407742      11.98475511      -0.01153669       0.03018874      -0.01730673       0.03239976       0.40119257       0.38697906
S       14.95136562       0.90666256      12.01349533       0.02507073      -0.03389126       0.01589420       0.02702512       0.29409973      -0.25701462
S       14.98213252       0.85569870      15.17432250       0.04324697      -0.07414939      -0.02390685      -0.45801556       0.63253656      -0.26946896
S       13.40276434      20.03908479      12.01404607       0.01731209      -0.00609133       0.01113438      -0.15032983      -0.33643534      -0.09494741
S        0.83303599      20.01154532      12.04110695      -0.01811969       0.00259779      -0.00467025      -0.86153842      -0.18079354      -0.91927559
S        0.81566382      19.99461147      15.21057730       0.03503340       0.00763259       0.01012819      -0.48162823       0.11130672      -1.04113939
S        2.40106623      17.28782283      11.96243097      -0.01235639      -0.01462817      -0.01297686      -0.67053482      -0.54513319       0.57084433
S        2.33574593      17.27939179      15.14677006       0.01183343      -0.01262943       0.00869313       0.05555873      -0.05981326      -0.27208971
S        0.78157266       9.09402414      15.19006307       0.06226206       0.02613367      -0.00978075       0.41620738      -0.37438280      -0.58330199
S        3.96965621      14.50944157      11.99737476       0.03603648      -0.01224221      -0.06114369      -0.39091071       0.47157198       0.33774652
S        3.92464490      14.53204091      15.12999588      -0.03024269      -0.05612367      -0.01054538       0.36592339       0.60257445       0.57576438
S       11.80645914       6.32520223      15.13857474       0.00055268       0.05029304       0.00980790       1.41945199       0.09086514       0.86114143
S        2.35757693       0.82109559      15.20399347      -0.00657305       0.02488211      -0.06633400       0.26018971       0.92790133      -1.15654157
