Si
 1.0000000000000000
     0.0000000000000000   10.9371606960916079   10.9371606960916079
    10.9371606960916079    0.0000000000000000   10.9371606960916079
    10.9371606960916079   10.9371606960916079    0.0000000000000000
 Si 
 128
Direct
  0.0629571570391013  0.0620428429608987  0.0620428429608987
  0.3125000000000000  0.0625000000000000  0.0625000000000001
  0.5625000000000001  0.0625000000000000  0.0625000000000000
  0.8125000000000000  0.0625000000000000  0.0625000000000000
  0.0625000000000000  0.3125000000000000  0.0625000000000001
  0.3125000000000000  0.3125000000000000  0.0625000000000000
  0.5624999999999999  0.3125000000000000  0.0625000000000001
  0.8125000000000001  0.3125000000000000  0.0625000000000000
  0.0625000000000000  0.5625000000000001  0.0625000000000000
  0.3125000000000000  0.5624999999999999  0.0625000000000001
  0.5625000000000000  0.5625000000000000  0.0625000000000000
  0.8125000000000000  0.5625000000000000  0.0625000000000000
  0.0625000000000000  0.8125000000000000  0.0625000000000000
  0.3125000000000000  0.8125000000000001  0.0625000000000000
  0.5625000000000000  0.8125000000000001  0.0625000000000000
  0.8125000000000000  0.8125000000000000  0.0625000000000000
  0.0625000000000000  0.0625000000000000  0.3125000000000000
  0.3125000000000000  0.0625000000000000  0.3125000000000000
  0.5625000000000001  0.0625000000000001  0.3124999999999998
  0.8125000000000000  0.0625000000000000  0.3125000000000000
  0.0625000000000000  0.3125000000000000  0.3125000000000000
  0.3125000000000000  0.3125000000000000  0.3125000000000000
  0.5624999999999999  0.3125000000000000  0.3125000000000000
  0.8125000000000000  0.3125000000000000  0.3125000000000000
  0.0625000000000001  0.5625000000000001  0.3124999999999998
  0.3125000000000000  0.5624999999999999  0.3125000000000000
  0.5624999999999999  0.5624999999999999  0.3125000000000001
  0.8125000000000000  0.5624999999999999  0.3125000000000001
  0.0625000000000000  0.8125000000000000  0.3125000000000000
  0.3125000000000000  0.8125000000000000  0.3125000000000000
  0.5624999999999999  0.8125000000000000  0.3125000000000001
  0.8125000000000000  0.8125000000000000  0.3125000000000001
  0.0625000000000000  0.0625000000000000  0.5625000000000000
  0.3125000000000001  0.0625000000000001  0.5624999999999999
  0.5625000000000001  0.0625000000000001  0.5624999999999999
  0.8124999999999998  0.0625000000000001  0.5624999999999999
  0.0625000000000001  0.3125000000000001  0.5624999999999999
  0.3125000000000001  0.3125000000000001  0.5624999999999999
  0.5625000000000000  0.3125000000000000  0.5625000000000000
  0.8125000000000000  0.3125000000000001  0.5624999999999999
  0.0625000000000001  0.5625000000000001  0.5624999999999999
  0.3125000000000000  0.5625000000000000  0.5625000000000000
  0.5625000000000000  0.5625000000000000  0.5625000000000000
  0.8125000000000000  0.5625000000000001  0.5624999999999999
  0.0625000000000001  0.8124999999999998  0.5624999999999999
  0.3125000000000001  0.8125000000000000  0.5624999999999999
  0.5625000000000001  0.8125000000000000  0.5624999999999999
  0.8125000000000000  0.8125000000000000  0.5624999999999999
  0.0625000000000000  0.0625000000000000  0.8125000000000000
  0.3125000000000001  0.0625000000000000  0.8125000000000000
  0.5625000000000001  0.0625000000000000  0.8125000000000000
  0.8125000000000001  0.0625000000000002  0.8124999999999998
  0.0625000000000000  0.3125000000000001  0.8125000000000000
  0.3125000000000001  0.3125000000000001  0.8125000000000000
  0.5624999999999999  0.3124999999999999  0.8125000000000001
  0.8125000000000001  0.3125000000000002  0.8124999999999998
  0.0625000000000000  0.5625000000000001  0.8125000000000000
  0.3124999999999999  0.5624999999999999  0.8125000000000001
  0.5624999999999999  0.5624999999999999  0.8125000000000001
  0.8125000000000001  0.5625000000000002  0.8124999999999998
  0.0625000000000002  0.8125000000000001  0.8124999999999998
  0.3125000000000002  0.8125000000000001  0.8124999999999998
  0.5625000000000002  0.8125000000000001  0.8124999999999998
  0.8125000000000000  0.8125000000000000  0.8125000000000000
  0.0000000000000000  0.0000000000000000 -0.0000000000000000
  0.2500000000000000  0.0000000000000000 -0.0000000000000000
  0.5000000000000000  0.0000000000000000 -0.0000000000000000
  0.7500000000000000  0.0000000000000000 -0.0000000000000000
  0.0000000000000000  0.2500000000000000 -0.0000000000000000
  0.2500000000000000  0.2500000000000000 -0.0000000000000000
  0.5000000000000000  0.2500000000000000 -0.0000000000000000
  0.7500000000000000  0.2500000000000000 -0.0000000000000000
  0.0000000000000000  0.5000000000000000 -0.0000000000000000
  0.2500000000000000  0.5000000000000000 -0.0000000000000000
  0.5000000000000000  0.5000000000000000 -0.0000000000000000
  0.7500000000000000  0.5000000000000000 -0.0000000000000000
  0.0000000000000000  0.7500000000000000 -0.0000000000000000
  0.2500000000000000  0.7500000000000000 -0.0000000000000000
  0.5000000000000001  0.7500000000000001  0.9999999999999999
  0.7500000000000000  0.7500000000000000 -0.0000000000000000
  0.0000000000000000  0.0000000000000000  0.2500000000000000
  0.2500000000000001  0.0000000000000000  0.2500000000000000
  0.4999999999999999 -0.0000000000000000  0.2500000000000001
  0.7500000000000000  0.0000000000000000  0.2500000000000001
  0.0000000000000000  0.2500000000000001  0.2500000000000000
  0.2500000000000000  0.2500000000000000  0.2500000000000000
  0.5000000000000001  0.2500000000000001  0.2499999999999999
  0.7500000000000001  0.2500000000000000  0.2500000000000001
 -0.0000000000000000  0.4999999999999999  0.2500000000000001
  0.2500000000000001  0.5000000000000001  0.2499999999999999
  0.5000000000000000  0.5000000000000000  0.2500000000000000
  0.7500000000000000  0.4999999999999999  0.2500000000000001
  0.0000000000000000  0.7500000000000000  0.2500000000000001
  0.2500000000000000  0.7500000000000001  0.2500000000000001
  0.4999999999999998  0.7500000000000001  0.2500000000000001
  0.7500000000000000  0.7500000000000000  0.2500000000000001
  0.0000000000000000  0.0000000000000000  0.5000000000000000
  0.2500000000000001  0.0000000000000001  0.4999999999999999
  0.5000000000000001  0.0000000000000001  0.4999999999999999
  0.7499999999999998 -0.0000000000000001  0.5000000000000001
  0.0000000000000001  0.2500000000000001  0.4999999999999999
  0.2500000000000001  0.2500000000000001  0.4999999999999999
  0.5000000000000000  0.2500000000000000  0.5000000000000000
  0.7500000000000001  0.2500000000000002  0.4999999999999998
  0.0000000000000001  0.5000000000000001  0.4999999999999999
  0.2500000000000000  0.5000000000000000  0.5000000000000000
  0.5000000000000000  0.5000000000000000  0.5000000000000000
  0.7500000000000001  0.5000000000000002  0.4999999999999998
 -0.0000000000000001  0.7499999999999998  0.5000000000000001
  0.2500000000000002  0.7500000000000001  0.4999999999999998
  0.5000000000000003  0.7500000000000001  0.4999999999999997
  0.7500000000000000  0.7500000000000000  0.4999999999999999
  0.0000000000000000  0.0000000000000000  0.7500000000000000
  0.2500000000000001  0.0000000000000000  0.7500000000000000
  0.5000000000000001  0.0000000000000000  0.7500000000000000
  0.7500000000000001  0.0000000000000002  0.7499999999999998
  0.0000000000000000  0.2500000000000001  0.7500000000000000
  0.2500000000000001  0.2500000000000001  0.7500000000000000
  0.4999999999999999  0.2499999999999999  0.7500000000000001
  0.7500000000000001  0.2500000000000002  0.7499999999999998
  0.0000000000000000  0.5000000000000001  0.7500000000000000
  0.2499999999999999  0.4999999999999999  0.7500000000000001
  0.4999999999999999  0.4999999999999999  0.7500000000000001
  0.7500000000000001  0.5000000000000002  0.7499999999999998
  0.0000000000000002  0.7500000000000001  0.7499999999999998
  0.2500000000000002  0.7500000000000001  0.7499999999999998
  0.5000000000000002  0.7500000000000001  0.7499999999999998
  0.7500000000000000  0.7500000000000000  0.7500000000000000
