Mo S 
 1.0000000000000000
    25.1903820799999991    0.0000000000000000    0.0000000000000000
   -12.5951910399999996   21.8155083199999993    0.0000000000000000
     0.0000000000000000    0.0000000000000000   27.1431245099999998
 Mo  S  
  64 128
Direct
  0.4484247999064923  0.9583333000236962  0.4999999998157913
  0.5734247999064922  0.8333333000236961  0.4999999998157913
  0.5734247999064923  0.7083333000236961  0.4999999998157913
  0.5734247999064923  0.5833333000236962  0.4999999998157913
  0.5734247999064923  0.4583333000236962  0.4999999998157913
  0.5734247999064923  0.3333333000236962  0.4999999998157913
  0.5734247999064923  0.2083333000236962  0.4999999998157913
  0.5734247999064923  0.0833333000236962  0.4999999998157913
  0.4484247999064923  0.8333333000236961  0.4999999998157913
  0.4484247999064923  0.7083333000236961  0.4999999998157913
  0.5734247999064923  0.9583333000236962  0.4999999998157913
  0.4484247999064923  0.5833333000236962  0.4999999998157913
  0.4484247999064923  0.3333333000236962  0.4999999998157913
  0.4484247999064923  0.2083333000236962  0.4999999998157913
  0.4484247999064923  0.0833333000236962  0.4999999998157913
  0.3234247999064923  0.9583333000236962  0.4999999998157913
  0.3234247999064922  0.8333333000236961  0.4999999998157913
  0.3234247999064923  0.7083333000236961  0.4999999998157913
  0.3234247999064923  0.5833333000236962  0.4999999998157913
  0.3234247999064923  0.4583333000236962  0.4999999998157913
  0.3234247999064923  0.3333333000236962  0.4999999998157913
  0.4484247999064923  0.4583333000236962  0.4999999998157913
  0.3234247999064923  0.2083333000236962  0.4999999998157913
  0.6984247999064922  0.0833333000236962  0.4999999998157913
  0.6984247999064922  0.3333333000236962  0.4999999998157913
  0.9484247999064922  0.8333333000236961  0.4999999998157913
  0.9484247999064923  0.7083333000236961  0.4999999998157913
  0.9484247999064923  0.5833333000236962  0.4999999998157913
  0.9484247999064923  0.4583333000236962  0.4999999998157913
  0.9484247999064923  0.3333333000236962  0.4999999998157913
  0.9484247999064923  0.2083333000236962  0.4999999998157913
  0.9484247999064923  0.0833333000236962  0.4999999998157913
  0.8234247999064924  0.9583333000236962  0.4999999998157913
  0.8234247999064923  0.8333333000236961  0.4999999998157913
  0.6984247999064924  0.2083333000236962  0.4999999998157913
  0.8234247999064923  0.7083333000236961  0.4999999998157913
  0.8234247999064923  0.4583333000236962  0.4999999998157913
  0.8234247999064923  0.3333333000236962  0.4999999998157913
  0.8234247999064923  0.2083333000236962  0.4999999998157913
  0.8234247999064923  0.0833333000236962  0.4999999998157913
  0.6984247999064924  0.9583333000236962  0.4999999998157913
  0.6984247999064922  0.8333333000236961  0.4999999998157913
  0.6984247999064924  0.7083333000236961  0.4999999998157913
  0.6984247999064924  0.5833333000236962  0.4999999998157913
  0.6984247999064922  0.4583333000236962  0.4999999998157913
  0.8234247999064923  0.5833333000236962  0.4999999998157913
  0.3234247999064923  0.0833333000236962  0.4999999998157913
  0.9484247999064923  0.9583333000236962  0.4999999998157913
  0.0734247999064923  0.3333333000236962  0.4999999998157913
  0.0734247999064923  0.2083333000236962  0.4999999998157913
  0.1984247999064923  0.5833333000236962  0.4999999998157913
  0.0734247999064923  0.7083333000236961  0.4999999998157913
  0.1984247999064923  0.0833333000236962  0.4999999998157913
  0.0734247999064922  0.8333333000236961  0.4999999998157913
  0.0734247999064923  0.5833333000236962  0.4999999998157913
  0.1984247999064922  0.8333333000236961  0.4999999998157913
  0.0734247999064923  0.4583333000236962  0.4999999998157913
  0.0734247999064923  0.0833333000236962  0.4999999998157913
  0.0734247999064923  0.9583333000236962  0.4999999998157913
  0.1984247999064923  0.9583333000236962  0.4999999998157913
  0.1984247999064923  0.2083333000236962  0.4999999998157913
  0.1984247999064923  0.3333333000236962  0.4999999998157913
  0.1984247999064923  0.4583333000236962  0.4999999998157913
  0.1984247999064923  0.7083333000236961  0.4999999998157913
  0.1150913300039967  0.6666666500118481  0.4421274398818281
  0.7400913300039967  0.9166666500118481  0.4421274398818281
  0.3650913300039967  0.0416666500118481  0.5578725601181720
  0.8650913300039966  0.0416666500118481  0.4421274398818281
  0.1150913300039967  0.6666666500118481  0.5578725601181720
  0.8650913300039966  0.1666666500118481  0.5578725601181720
  0.8650913300039966  0.2916666500118481  0.5578725601181720
  0.8650913300039966  0.0416666500118481  0.5578725601181720
  0.8650913300039966  0.1666666500118481  0.4421274398818281
  0.7400913300039967  0.7916666500118481  0.5578725601181720
  0.7400913300039967  0.7916666500118481  0.4421274398818281
  0.8650913300039966  0.2916666500118481  0.4421274398818281
  0.1150913300039967  0.7916666500118481  0.5578725601181720
  0.7400913300039967  0.6666666500118481  0.4421274398818281
  0.7400913300039967  0.6666666500118481  0.5578725601181720
  0.1150913300039967  0.7916666500118481  0.4421274398818281
  0.7400913300039966  0.5416666500118481  0.4421274398818281
  0.7400913300039966  0.5416666500118481  0.5578725601181720
  0.7400913300039966  0.4166666500118480  0.4421274398818281
  0.7400913300039966  0.4166666500118480  0.5578725601181720
  0.1150913300039967  0.9166666500118481  0.5578725601181720
  0.7400913300039966  0.2916666500118481  0.4421274398818281
  0.7400913300039966  0.2916666500118481  0.5578725601181720
  0.1150913300039967  0.9166666500118481  0.4421274398818281
  0.7400913300039967  0.9166666500118481  0.5578725601181720
  0.1150913300039967  0.5416666500118481  0.4421274398818281
  0.8650913300039966  0.5416666500118481  0.4421274398818281
  0.8650913300039965  0.4166666500118480  0.4421274398818281
  0.9900913300039967  0.9166666500118481  0.5578725601181720
  0.1150913300039967  0.0416666500118481  0.4421274398818281
  0.9900913300039967  0.7916666500118481  0.4421274398818281
  0.9900913300039967  0.7916666500118481  0.5578725601181720
  0.9900913300039965  0.6666666500118481  0.4421274398818281
  0.9900913300039965  0.6666666500118481  0.5578725601181720
  0.1150913300039967  0.1666666500118481  0.5578725601181720
  0.9900913300039967  0.5416666500118481  0.4421274398818281
  0.9900913300039967  0.5416666500118481  0.5578725601181720
  0.1150913300039967  0.1666666500118481  0.4421274398818281
  0.9900913300039965  0.4166666500118480  0.4421274398818281
  0.9900913300039965  0.4166666500118480  0.5578725601181720
  0.9900913300039967  0.2916666500118481  0.4421274398818281
  0.9900913300039967  0.2916666500118481  0.5578725601181720
  0.8650913300039965  0.4166666500118480  0.5578725601181720
  0.1150913300039967  0.2916666500118481  0.5578725601181720
  0.9900913300039967  0.1666666500118481  0.5578725601181720
  0.1150913300039967  0.2916666500118481  0.4421274398818281
  0.9900913300039967  0.0416666500118481  0.4421274398818281
  0.9900913300039967  0.0416666500118481  0.5578725601181720
  0.8650913300039969  0.9166666500118481  0.4421274398818281
  0.8650913300039969  0.9166666500118481  0.5578725601181720
  0.1150913300039967  0.4166666500118480  0.5578725601181720
  0.8650913300039966  0.7916666500118481  0.4421274398818281
  0.8650913300039966  0.7916666500118481  0.5578725601181720
  0.1150913300039967  0.4166666500118480  0.4421274398818281
  0.8650913300039966  0.6666666500118481  0.4421274398818281
  0.8650913300039966  0.6666666500118481  0.5578725601181720
  0.8650913300039966  0.5416666500118481  0.5578725601181720
  0.1150913300039967  0.5416666500118481  0.5578725601181720
  0.9900913300039967  0.1666666500118481  0.4421274398818281
  0.7400913300039966  0.1666666500118481  0.4421274398818281
  0.2400913300039967  0.0416666500118481  0.5578725601181720
  0.7400913300039966  0.0416666500118481  0.4421274398818281
  0.4900913300039967  0.4166666500118480  0.5578725601181720
  0.2400913300039967  0.5416666500118481  0.5578725601181720
  0.4900913300039967  0.2916666500118481  0.4421274398818281
  0.4900913300039967  0.2916666500118481  0.5578725601181720
  0.2400913300039967  0.5416666500118481  0.4421274398818281
  0.4900913300039967  0.1666666500118481  0.4421274398818281
  0.4900913300039967  0.1666666500118481  0.5578725601181720
  0.4900913300039967  0.0416666500118481  0.4421274398818281
  0.4900913300039967  0.0416666500118481  0.5578725601181720
  0.2400913300039967  0.6666666500118481  0.5578725601181720
  0.3650913300039967  0.9166666500118481  0.4421274398818281
  0.3650913300039967  0.9166666500118481  0.5578725601181720
  0.2400913300039967  0.6666666500118481  0.4421274398818281
  0.3650913300039967  0.7916666500118481  0.4421274398818281
  0.4900913300039967  0.4166666500118480  0.4421274398818281
  0.3650913300039967  0.7916666500118481  0.5578725601181720
  0.3650913300039967  0.6666666500118481  0.5578725601181720
  0.2400913300039967  0.7916666500118481  0.5578725601181720
  0.3650913300039967  0.5416666500118481  0.4421274398818281
  0.3650913300039967  0.5416666500118481  0.5578725601181720
  0.2400913300039967  0.7916666500118481  0.4421274398818281
  0.3650913300039967  0.4166666500118480  0.4421274398818281
  0.3650913300039967  0.4166666500118480  0.5578725601181720
  0.3650913300039967  0.2916666500118481  0.4421274398818281
  0.3650913300039967  0.2916666500118481  0.5578725601181720
  0.2400913300039967  0.9166666500118481  0.5578725601181720
  0.3650913300039967  0.1666666500118481  0.4421274398818281
  0.3650913300039967  0.1666666500118481  0.5578725601181720
  0.2400913300039967  0.9166666500118481  0.4421274398818281
  0.3650913300039967  0.0416666500118481  0.4421274398818281
  0.3650913300039967  0.6666666500118481  0.4421274398818281
  0.7400913300039966  0.1666666500118481  0.5578725601181720
  0.4900913300039967  0.5416666500118481  0.5578725601181720
  0.2400913300039967  0.4166666500118480  0.4421274398818281
  0.7400913300039966  0.0416666500118481  0.5578725601181720
  0.6150913300039967  0.9166666500118481  0.4421274398818281
  0.6150913300039967  0.9166666500118481  0.5578725601181720
  0.2400913300039967  0.0416666500118481  0.4421274398818281
  0.6150913300039967  0.7916666500118481  0.4421274398818281
  0.6150913300039967  0.7916666500118481  0.5578725601181720
  0.6150913300039967  0.6666666500118481  0.4421274398818281
  0.6150913300039967  0.6666666500118481  0.5578725601181720
  0.2400913300039967  0.1666666500118481  0.5578725601181720
  0.6150913300039967  0.5416666500118481  0.4421274398818281
  0.6150913300039967  0.5416666500118481  0.5578725601181720
  0.2400913300039967  0.1666666500118481  0.4421274398818281
  0.6150913300039967  0.4166666500118480  0.4421274398818281
  0.6150913300039967  0.4166666500118480  0.5578725601181720
  0.4900913300039967  0.5416666500118481  0.4421274398818281
  0.6150913300039967  0.2916666500118481  0.4421274398818281
  0.2400913300039967  0.2916666500118481  0.5578725601181720
  0.6150913300039967  0.1666666500118481  0.4421274398818281
  0.6150913300039967  0.1666666500118481  0.5578725601181720
  0.2400913300039967  0.2916666500118481  0.4421274398818281
  0.6150913300039967  0.0416666500118481  0.4421274398818281
  0.6150913300039967  0.0416666500118481  0.5578725601181720
  0.9900913300039967  0.9166666500118481  0.4421274398818281
  0.4900913300039967  0.9166666500118481  0.4421274398818281
  0.4900913300039967  0.9166666500118481  0.5578725601181720
  0.4900913300039967  0.7916666500118481  0.4421274398818281
  0.4900913300039967  0.7916666500118481  0.5578725601181720
  0.2400913300039967  0.4166666500118480  0.5578725601181720
  0.4900913300039967  0.6666666500118481  0.4421274398818281
  0.4900913300039967  0.6666666500118481  0.5578725601181720
  0.6150913300039967  0.2916666500118481  0.5578725601181720
  0.1150913300039967  0.0416666500118481  0.5578725601181720
