128
Lattice="0.0 10.937160696091608 10.937160696091608 10.937160696091608 0.0 10.937160696091608 10.937160696091608 10.937160696091608 0.0" Properties=species:S:1:pos:R:3:forces:R:3 pbc="T T T"
Si       1.36957411       1.35702595       1.37490059      -0.16584088       0.25170765      -0.19760244
Si       1.37593259       4.08220561       4.08866445      -0.13765650       0.30136526       0.06821527
Si       1.36780534       6.83284371       6.83580841      -0.00561082      -0.06353495       0.13864498
Si       1.35799650       9.57909029       9.57804451       0.11255296      -0.10662181       0.01703069
Si       4.10147742       1.37869820       4.10636134      -0.06606741      -0.15919179      -0.16559553
Si       4.09222419       4.10540347       6.82638760       0.12144762      -0.11619205      -0.01189095
Si       4.10960162       6.83550688       9.56841797      -0.12900138      -0.07390267       0.09601390
Si       4.09400782       9.58252173      12.30301147       0.04369555      -0.09555436       0.05092667
Si       6.83082401       1.36390445       6.84129951       0.04776814       0.18228884      -0.08139077
Si       6.83876173       4.10584329       9.57457481      -0.04352734      -0.11091506      -0.06269001
Si       6.85652376       6.83194199      12.29943434      -0.42326467       0.16081454       0.07729940
Si       6.82696956       9.57645611      15.05013667       0.27584202       0.12384200      -0.06841736
Si       9.56825799       1.35902423       9.56202178      -0.23188443       0.10662703       0.10170775
Si       9.57590339       4.10914851      12.30998831      -0.00385735      -0.01665265      -0.22086087
Si       9.56274236       6.83832775      15.04001380       0.10622424      -0.10623395      -0.18196601
Si       9.57158435       9.57901060      17.77537307       0.00027316      -0.21964542      -0.06034699
Si       4.10760625       4.10239176       1.37028727      -0.15701119      -0.04946717      -0.05159694
Si       4.10713000       6.82143458       4.09848954      -0.13733653       0.41566145       0.04328831
Si       4.09611339       9.56390753       6.83322500       0.09133165       0.15434570       0.20658891
Si       4.11576653      12.29592818       9.57994938      -0.29745538       0.02734863      -0.17089400
Si       6.81827859       4.09836711       4.10331378       0.27864977      -0.00393104      -0.01416584
Si       6.84096951       6.84311840       6.84390989       0.01498813      -0.10083697      -0.12311334
Si       6.83162004       9.56567279       9.57884635      -0.02432388       0.05171411      -0.18784041
Si       6.83319424      12.29182962      12.29322390       0.20841642       0.14197403       0.05098719
Si       9.56020294       4.10668757       6.83740068       0.22096743      -0.05210151       0.02523387
Si       9.57630231       6.83173361       9.57185199      -0.12074865       0.15312562      -0.06863681
Si       9.57565336       9.56720285      12.30912452      -0.07354585       0.02542471      -0.05339441
Si       9.56277820      12.30095595      15.03502956       0.16122969       0.22551395       0.14427937
Si      12.29172924       4.10658569       9.56557257       0.21001400       0.00638071      -0.14855922
Si      12.30381258       6.84081361      12.30902208      -0.11046230      -0.01181708      -0.25211174
Si      12.31034149       9.56931146      15.03461396      -0.02416251       0.11923906       0.03389987
Si      12.30289045      12.28771314      17.75866599      -0.03311487       0.22419220       0.16744062
Si       6.82188029       6.82603367       1.37139382       0.23276626       0.00185062       0.01244406
Si       6.82605250       9.56651469       4.11467853       0.01287216       0.01277797      -0.19799652
Si       6.83154465      12.31196164       6.82664024       0.02156671      -0.12520794       0.14694741
Si       6.83305291      15.02937644       9.56687626      -0.06460099      -0.00997369       0.08128350
Si       9.57780054       6.81873293       4.10603048      -0.03369813       0.17645871       0.01000558
Si       9.57177482       9.56435481       6.82151584      -0.13393305       0.10373430       0.16909846
Si       9.57011876      12.29929156       9.57259336       0.15299659       0.08460633       0.05647594
Si       9.56961598      15.05489445      12.30216321       0.11898939      -0.19432195       0.05304879
Si      12.29345266       6.83779889       6.83817639       0.21396891       0.04426436       0.02642615
Si      12.31727951       9.57864742       9.57383531      -0.20390836      -0.25197261      -0.00857189
Si      12.31832066      12.29269886      12.29815925      -0.23557915       0.15005628       0.17113124
Si      12.29442188      15.03497856      15.02508008       0.12154215       0.12995533       0.19053912
Si      15.04432932       6.83378391       9.55555853       0.02146883       0.04433879       0.12615222
Si      15.02782202       9.57343145      12.31293804       0.17731757       0.04687176      -0.39312665
Si      15.05794512      12.33372511      15.04299104      -0.16719472      -0.31066420      -0.05547195
Si      15.02808243      15.01755620      17.77581423       0.17135758       0.13462181      -0.13431425
Si       9.56126805       9.56614274       1.36127511       0.12123204       0.11913562      -0.04360264
Si       9.56798955      12.31524629       4.10325673       0.00020766      -0.19505492       0.05849261
Si       9.56781111      15.02852012       6.81922959       0.04287698       0.20455551       0.36885475
Si       9.56453438      17.77262901       9.58794589       0.01010531      -0.01558698      -0.19967020
Si      12.30499038       9.58012371       4.09669329      -0.04024922      -0.15395729       0.09377063
Si      12.29183820      12.29493532       6.82872416       0.14522330       0.06709157       0.18886501
Si      12.32497233      15.03066279       9.57865149      -0.20163146       0.06393484      -0.09707913
Si      12.29465836      17.78248256      12.30840628       0.02912724      -0.12538610       0.10707111
Si      15.03641143       9.56988869       6.82942854       0.04079877       0.12493204       0.15465081
Si      15.04243853      12.30003665       9.55801054      -0.04224449       0.03091190       0.19260666
Si      15.02519843      15.04060254      12.32034768       0.17054134      -0.11990100      -0.15081070
Si      15.03957773      17.77198045      15.04170520       0.06359013       0.06866328       0.09506042
Si      17.78532800       9.57249014       9.56615732       0.00276747      -0.07433125      -0.00413555
Si      17.78333087      12.30887405      12.31991433      -0.03281754      -0.21835393      -0.14421132
Si      17.77410033      15.02663197      15.02516535       0.15532869       0.09389049       0.10021257
Si      17.78877726      17.79040349      17.77134193      -0.27628034      -0.26765897       0.01252733
Si      -0.00445002       0.01489515      -0.01081947      -0.04513591      -0.15678639       0.19606665
Si      -0.00956542       2.74100415       2.73059511       0.10653871      -0.13000242      -0.01083180
Si      -0.00066937       5.46722662       5.47220708       0.05558763      -0.05972484      -0.18585944
Si       0.01345667       8.20405707       8.20956090      -0.23335098      -0.03910107       0.00975751
Si       2.71317030      -0.00020648       2.72610886       0.33079973       0.08202486       0.17629217
Si       2.72148390       2.72578935       5.46549010       0.10348789       0.03571240       0.06186606
Si       2.74283105       5.45559712       8.20342782      -0.05404420       0.17652966       0.01485523
Si       2.72883033       8.19987449      10.94743926       0.05962163       0.05795454      -0.13531290
Si       5.47334335       0.01365468       5.46728628      -0.15373157      -0.07590859       0.06010704
Si       5.46100277       2.73233229       8.20554648       0.06154577       0.13380462      -0.09110968
Si       5.46972793       5.45801717      10.93831658      -0.04715895       0.11788718       0.10649508
Si       5.47024448       8.22832597      13.69047030      -0.01216415      -0.28060341      -0.29620576
Si       8.19371994      -0.00259313       8.18848709       0.12318761       0.02977745       0.11926093
Si       8.19634530       2.73772693      10.94947022       0.17800391      -0.03832571      -0.11377567
Si       8.19496154       5.46231959      13.65022897       0.15799312       0.05327370       0.29659935
Si       8.20062571       8.19252708      16.40069764       0.11183687       0.28084263       0.04295897
Si       2.72490342       2.73362825      -0.01732630       0.11017563       0.02162482       0.22992200
Si       2.71900157       5.49015352       2.72166693       0.20636537      -0.32987724       0.15212643
Si       2.72270417       8.22152036       5.49788201       0.14983519      -0.33064232      -0.43827949
Si       2.72195636      10.93375891       8.20653706       0.19854424       0.01843847       0.00735816
Si       5.48524918       2.72470231       2.73208838      -0.20380581       0.03908332      -0.05243189
Si       5.47573558       5.47320871       5.46506977      -0.06413934      -0.01660950       0.11078897
Si       5.46662397       8.18940227       8.20073977       0.02175445       0.21056982       0.03544350
Si       5.46529833      10.93976310      10.93185841       0.03909461      -0.14692883       0.10572346
Si       8.20696776       2.74469804       5.47038563      -0.15782605      -0.12816348      -0.00830855
Si       8.20576994       5.46939260       8.20312235      -0.04311787       0.03801860       0.05963086
Si       8.19503679       8.20631617      10.93643882       0.21715724      -0.02797146      -0.00174826
Si       8.22318406      10.95317495      13.67556032      -0.31317499      -0.27529241      -0.07553370
Si      10.92891198       2.72344676       8.21503294       0.07172886       0.07896089      -0.28930096
Si      10.93917004       5.47366249      10.91996582       0.00717864      -0.01421026       0.27714785
Si      10.94581693       8.20769543      13.66059755      -0.11168041      -0.07266903       0.20876256
Si      10.93182730      10.94007857      16.40651670       0.00726499      -0.10431581      -0.15976701
Si       5.46504049       5.46782617      -0.00226879       0.01416648      -0.06205230      -0.05651087
Si       5.46948783       8.21786615       2.70887458      -0.08588821      -0.19051753       0.35944959
Si       5.46559370      10.93920652       5.47179127      -0.04601042       0.02178943       0.00126180
Si       5.46424305      13.65416436       8.20640146       0.01875688       0.11235065      -0.03285807
Si       8.21952588       5.45352244       2.74317944      -0.31437604       0.15818448      -0.02123401
Si       8.19896712       8.20253798       5.45830235       0.06282900      -0.11140308       0.06904431
Si       8.19890781      10.95044185       8.20894806       0.00218951      -0.20468757      -0.13435485
Si       8.21957549      13.68350569      10.94180255      -0.17509737      -0.14798486      -0.03694628
Si      10.95398189       5.47325098       5.47711122      -0.16190095      -0.16233634      -0.05414469
Si      10.93357684       8.20381668       8.19614727       0.03962202       0.08457274       0.14491189
Si      10.94643839      10.92565836      10.94523519      -0.08840241       0.08978766      -0.08068690
Si      10.93463604      13.68344404      13.67921055      -0.01712155      -0.24215249      -0.26472848
Si      13.68903918       5.47616880       8.18740111      -0.25753786      -0.12270424       0.09987622
Si      13.67016319       8.19143115      10.93222888       0.08449059       0.09034262       0.02458976
Si      13.68594501      10.94381674      13.66471255      -0.01094080       0.08302544       0.26526930
Si      13.66069555      13.67205939      16.39382643      -0.00989819      -0.02197081       0.06808090
Si       8.19554097       8.20627132       0.01180411      -0.03455809      -0.13206642      -0.06087370
Si       8.20833999      10.91452850       2.73758483      -0.05578149       0.23124176       0.11776895
Si       8.20297271      13.67587048       5.48499343      -0.06601756      -0.07051826      -0.30716798
Si       8.18161999      16.40011071       8.20903057       0.31017312       0.05553620      -0.09368113
Si      10.92072660       8.21791072       2.73822473       0.10974309      -0.14475505       0.01055967
Si      10.94500839      10.93173196       5.47696897      -0.17067160       0.07351842      -0.21737547
Si      10.94722726      13.67406035       8.20546552      -0.10737444      -0.02868608      -0.01918894
Si      10.93924598      16.39738829      10.93593640       0.09678412       0.11574077      -0.00059447
Si      13.66930750       8.20698516       5.47882958      -0.04433828      -0.05955622      -0.15609769
Si      13.66024736      10.93619131       8.21793606       0.15699615       0.04151422      -0.29954537
Si      13.66339684      13.66350907      10.93943474       0.27139273      -0.02433330       0.02853796
Si      13.67927657      16.40613601      13.68499146      -0.20473250       0.12396665      -0.11551569
Si      16.41369084       8.21156943       8.20866267      -0.03187277      -0.01050588      -0.13629159
Si      16.42839943      10.93538978      10.91737646      -0.22047724       0.06122408       0.29010643
Si      16.42116544      13.66715458      13.67278066      -0.15733472       0.11112096      -0.10790014
Si      16.41821840      16.38999915      16.39347556      -0.08821955       0.10969650       0.21638512
128
Lattice="0.0 10.937160696091608 10.937160696091608 10.937160696091608 0.0 10.937160696091608 10.937160696091608 10.937160696091608 0.0" Properties=species:S:1:pos:R:3:forces:R:3 pbc="T T T"
Si       1.35249619       1.35971813       1.37193427       0.30738148       0.12277297      -0.18264115
Si       1.37375085       4.10471241       4.08770041      -0.12212096      -0.00274860      -0.05059639
Si       1.34540794       6.83678337       6.83140049       0.45106724       0.00655635      -0.16186511
Si       1.37310283       9.57754955       9.57179084      -0.07487098      -0.13548483      -0.02520147
Si       4.11040048       1.36995160       4.10712872      -0.07199304      -0.10293898       0.01283602
Si       4.09575241       4.10015355       6.83808601       0.03598995       0.00155153       0.03844547
Si       4.11100443       6.83230243       9.57562009      -0.05915901       0.03977966      -0.27594517
Si       4.10014076       9.56935459      12.31299379       0.10842722       0.03341939      -0.15048411
Si       6.81715872       1.35469477       6.82129639       0.17522933       0.22295473       0.25247785
Si       6.81375316       4.09516702       9.57790276       0.32053315       0.12145520      -0.25075276
Si       6.83424048       6.83821774      12.31559077       0.04467178       0.01253172      -0.29659855
Si       6.85036618       9.56983863      15.05252463      -0.15099165       0.07294438      -0.22420223
Si       9.57230076       1.35928551       9.56446442      -0.15821335       0.13804103       0.06546780
Si       9.55657413       4.09306833      12.30111843       0.16913282       0.12905281       0.04238164
Si       9.57941534       6.85344754      15.02516695      -0.09883477      -0.26721216       0.20169565
Si       9.57530777       9.56012457      17.77802591      -0.09708518       0.03931174       0.03880389
Si       4.10148828       4.08364061       1.37682087       0.09541112      -0.01165022      -0.14419466
Si       4.09674914       6.83090084       4.09113055       0.15895390       0.04451011       0.08832857
Si       4.09625631       9.57480892       6.83422580       0.16885578       0.03087063       0.18182068
Si       4.10608577      12.30843941       9.58361504      -0.06424039      -0.01071959      -0.36715528
Si       6.83366146       4.08718109       4.11250030       0.08615970       0.04167558      -0.04928040
Si       6.83377444       6.84738576       6.83995202       0.09715480      -0.10675571      -0.21315998
Si       6.83577794       9.57401777       9.58991855       0.05618080      -0.02356979      -0.25134808
Si       6.85785913      12.30551400      12.30630050      -0.38301469      -0.04370095      -0.02906426
Si       9.58214190       4.09349305       6.83944895      -0.28326111       0.16162253      -0.01036492
Si       9.57112087       6.83937892       9.56207473      -0.00166152       0.02619221      -0.01039765
Si       9.55548382       9.54980018      12.29352475       0.10247746       0.30313590       0.15331681
Si       9.56679274      12.30188827      15.05836108      -0.07951456       0.10068538      -0.19357988
Si      12.31672960       4.09232875       9.57388551      -0.13742257       0.03680118      -0.13008184
Si      12.30159889       6.83339620      12.30655185      -0.02846617      -0.00530283      -0.07648681
Si      12.31186138       9.56713743      15.04962728      -0.22290716       0.16452168      -0.15935893
Si      12.29425029      12.30488358      17.79925568       0.03062907       0.05423360      -0.41791497
Si       6.83932012       6.85057198       1.36845310      -0.02871237      -0.08247987      -0.02502149
Si       6.84289709       9.56996218       4.10012400      -0.05938651      -0.02909750       0.23661798
Si       6.82929450      12.30912320       6.82760288       0.20345509       0.00005202       0.12924341
Si       6.84374517      15.04996323       9.57407374      -0.15130904      -0.07495132      -0.04817995
Si       9.56851701       6.84077949       4.09874134       0.01391985      -0.11241719      -0.06758437
Si       9.58073497       9.55221595       6.83276217      -0.12609428       0.30406258       0.04612814
Si       9.55147137      12.28986958       9.58404704       0.11889764       0.07543351      -0.03906246
Si       9.58033134      15.03191556      12.28967356      -0.16813865       0.01698534       0.09112834
Si      12.27602438       6.83080488       6.86032240       0.21164495       0.00707740      -0.33344846
Si      12.31001851       9.56493429       9.57505922      -0.00826318       0.11108545      -0.00018054
Si      12.29006008      12.30184695      12.30569337       0.15369479       0.02940736      -0.00774693
Si      12.30480866      15.04701842      15.04243522       0.04178819      -0.05914266      -0.10951266
Si      15.04664310       6.82935612       9.57938658      -0.04428655       0.00107957      -0.08534572
Si      15.05624921       9.56082852      12.29582164      -0.16352578       0.13545440      -0.01112166
Si      15.05331769      12.30290675      15.05302698      -0.12051178      -0.09336201      -0.28779929
Si      15.03553448      15.05366082      17.77459380      -0.04670385      -0.15134845      -0.02749044
Si       9.57396178       9.58617719       1.36392019      -0.02310748      -0.13370454       0.00789712
Si       9.56196827      12.30033454       4.10635141       0.08068080      -0.01733463      -0.05357118
Si       9.55572190      15.04548507       6.83073053       0.09874302      -0.15730737       0.17292294
Si       9.58285762      17.74945793       9.56254276      -0.06852252       0.28703063      -0.01771870
Si      12.28880499       9.56226772       4.10430473       0.28325651       0.21002659       0.00781811
Si      12.30387740      12.30228641       6.83452640       0.09929063       0.15267516      -0.01797498
Si      12.30770355      15.02902500       9.57747692      -0.04959688      -0.07110299      -0.24625068
Si      12.31229633      17.77725091      12.31026393       0.02264859      -0.04576887      -0.16132884
Si      15.04292402       9.59088075       6.83524731      -0.01524857      -0.24938051       0.07117341
Si      15.03688901      12.29728491       9.56008579      -0.00275480       0.00455659       0.11626653
Si      15.02751512      15.03022239      12.30399179       0.18571932       0.15887228      -0.03697124
Si      15.04330279      17.77391196      15.03133342      -0.04387590       0.19731440       0.25640969
Si      17.78325186       9.57792414       9.56881194      -0.20227658       0.04554752      -0.03592290
Si      17.76772085      12.31030447      12.30657833       0.10352297      -0.02574374       0.09956011
Si      17.75976874      15.03843056      15.04160913       0.16966474       0.16205174      -0.04546583
Si      17.76525307      17.77529897      17.75873072      -0.03091937       0.05177810       0.12029561
Si       0.01472575       0.01299390      -0.00213236      -0.18664541      -0.16082734      -0.04310094
Si       0.00499843       2.71070536       2.72311951      -0.18666443       0.28136109       0.16693949
Si      -0.00157390       5.45837342       5.47611713      -0.05191169       0.11201914      -0.26400066
Si       0.02133685       8.19161878       8.19488870      -0.25623418       0.14745595       0.21437608
Si       2.73800854       0.01662557       2.72245924      -0.09368931      -0.22373429       0.25847279
Si       2.73814442       2.75301757       5.45245557      -0.05902327      -0.20675243       0.15841957
Si       2.72284337       5.46485869       8.19805745       0.05700127       0.09677766       0.05327994
Si       2.74378007       8.20580152      10.91980389      -0.03970469      -0.00826768       0.22644716
Si       5.47509834      -0.00526099       5.48171763      -0.09851870      -0.00923361      -0.30407506
Si       5.46366836       2.72843843       8.20867465      -0.02454088      -0.00537053      -0.14532531
Si       5.47757350       5.47357575      10.92069754      -0.16480356      -0.07719815       0.38005075
Si       5.47532458       8.19304185      13.67419644       0.00060499       0.24614239       0.06314467
Si       8.18999706       0.00497763       8.19519735       0.15385544      -0.06442764      -0.02756526
Si       8.19140806       2.74194278      10.93996995       0.07345446      -0.17239113      -0.11756908
Si       8.19809464       5.48360654      13.66743716       0.05804140      -0.18739353       0.12840369
Si       8.20455548       8.20607406      16.39993720       0.09763718      -0.09090019       0.09802837
Si       2.74036542       2.72947005      -0.00372357      -0.11936212      -0.05589774       0.18646163
Si       2.74928049       5.45868889       2.71055518      -0.19013843       0.12091870       0.18417154
Si       2.75176343       8.22887821       5.46492047      -0.21056549      -0.45404890       0.05514810
Si       2.71628568      10.93457026       8.20040110       0.29109864       0.10208671       0.12007864
Si       5.46804499       2.72367070       2.74047860       0.14154617       0.00281198      -0.04559184
Si       5.47518931       5.45415070       5.47596513      -0.10389623       0.21338053      -0.05105637
Si       5.49047108       8.20510453       8.19989008      -0.28689725       0.10554909       0.11620019
Si       5.46852420      10.94382767      10.92024679       0.03253233      -0.04629694       0.40353872
Si       8.20587831       2.73089994       5.48745141      -0.08166196      -0.02004701      -0.07837352
Si       8.20249268       5.48577363       8.19222593      -0.05314913      -0.29427181       0.13987269
Si       8.21010700       8.20657893      10.92886304      -0.18116737      -0.20548587       0.07347920
Si       8.20600837      10.94980029      13.66860577       0.07341923      -0.23022468       0.09207663
Si      10.92160495       2.73462895       8.19423910       0.21303968       0.02717724       0.28234555
Si      10.93510117       5.46827887      10.92049699       0.00547394      -0.07399754       0.16505645
Si      10.92236800       8.20820559      13.66661650       0.30360146       0.04247376       0.01253870
Si      10.91287714      10.94552354      16.40885755       0.35951765      -0.15136733       0.10956795
Si       5.46280548       5.45592645       0.00875089       0.11404918       0.10927000       0.07629368
Si       5.47343774       8.22721095       2.73888487      -0.00177126      -0.31089899       0.00389407
Si       5.47382126      10.93600582       5.47714092       0.00811349      -0.05630070      -0.06051237
Si       5.47619508      13.68448252       8.19805011      -0.09513314      -0.02937806       0.08078813
Si       8.19988033       5.46430372       2.74259100       0.03532966      -0.01519260      -0.15807739
Si       8.21921815       8.19879652       5.46472542      -0.18977643       0.03114096       0.02023969
Si       8.20737518      10.93521748       8.21278387      -0.11474422      -0.10102986      -0.21781385
Si       8.18171663      13.66369822      10.92972935       0.27078997       0.16166610       0.06292356
Si      10.91532102       5.45945837       5.45982160       0.21696311       0.12609076       0.10909684
Si      10.93651353       8.21451458       8.20081273       0.00736283      -0.07762689       0.18960779
Si      10.92821644      10.93710555      10.94804524       0.03225514      -0.15034115      -0.08681641
Si      10.92876499      13.66285953      13.67742917       0.07196900       0.11955154       0.03569398
Si      13.67059939       5.47556960       8.20312687      -0.03361857      -0.03670830       0.08354176
Si      13.67983139       8.19303414      10.93743266      -0.05156181       0.02857356       0.03600643
Si      13.67070785      10.92551619      13.65620890       0.10283065       0.12415460       0.16156241
Si      13.67967225      13.66845575      16.39591105      -0.16084446       0.01426533       0.25319740
Si       8.20327262       8.21466511      -0.02241457       0.21952630      -0.16567515       0.18376933
Si       8.18926802      10.92844624       2.74929478       0.14671898       0.17185865      -0.22099649
Si       8.20706028      13.67963845       5.45757155      -0.12688432      -0.05097640       0.07751971
Si       8.19303905      16.41073359       8.20384608       0.03659984       0.02236756      -0.12629890
Si      10.94401197       8.20150822       2.73746442      -0.15165584       0.03275622      -0.13626821
Si      10.94010577      10.94545277       5.47704324      -0.08038047      -0.12617453      -0.08323902
Si      10.92232586      13.64949259       8.21328079       0.01644380       0.19598833      -0.06279190
Si      10.95040183      16.39604922      10.91895515       0.00356920       0.07479320       0.29738234
Si      13.67380510       8.21269331       5.48694911      -0.11796263      -0.17588605      -0.09154255
Si      13.67797773      10.93395793       8.19433203      -0.14763606       0.04989572       0.10517180
Si      13.67292927      13.66897263      10.92740283      -0.05374022      -0.13221373       0.13563360
Si      13.69330231      16.42410713      13.68320417      -0.26906609      -0.23048629      -0.16617006
Si      16.39789643       8.21193512       8.20965960       0.10275275      -0.03635884      -0.06574884
Si      16.41153039      10.95017175      10.94390722      -0.02270541      -0.11215021      -0.13287775
Si      16.41450507      13.67833434      13.67525160      -0.17891678      -0.07490545      -0.03889495
Si      16.38926882      16.40709166      16.40057194       0.13068253       0.01802513       0.02162287
128
Lattice="0.0 10.937160696091608 10.937160696091608 10.937160696091608 0.0 10.937160696091608 10.937160696091608 10.937160696091608 0.0" Properties=species:S:1:pos:R:3:forces:R:3 pbc="T T T"
Si       1.35307501       1.38420052       1.38493712       0.26042896      -0.15211704      -0.35741063
Si       1.37946562       4.10422466       4.11544359      -0.20393439       0.06991942      -0.33715590
Si       1.36599395       6.83799067       6.82529280      -0.10827570      -0.06560640       0.16696286
Si       1.36984333       9.57085673       9.55749117      -0.06022307      -0.06160017       0.12660445
Si       4.09965162       1.36658505       4.11991295      -0.06026975       0.08968017      -0.26911062
Si       4.10910572       4.10178698       6.83871539      -0.19420702      -0.00742250       0.04906589
Si       4.10060571       6.83393356       9.55969342      -0.12660548       0.01021054       0.26472408
Si       4.09865307       9.56279189      12.29230471       0.10978848       0.12266507       0.11694137
Si       6.83956598       1.37129500       6.81836044      -0.00021128      -0.08840571       0.18317820
Si       6.83322692       4.11162954       9.58110993       0.01458823      -0.04219213      -0.12960845
Si       6.84471213       6.83635183      12.29635741       0.05766746       0.18749901       0.11472999
Si       6.82361678       9.57369892      15.04289084       0.21650036       0.02231663      -0.10972575
Si       9.58161725       1.37838215       9.56919540      -0.10728974      -0.20362131       0.03592413
Si       9.55630188       4.09848146      12.30698018       0.09524467       0.06389191      -0.01094404
Si       9.56672311       6.83018376      15.04162689      -0.00166257       0.01663918       0.03094315
Si       9.56370436       9.56397221      17.77650274       0.12140568       0.07729964      -0.02156661
Si       4.09614366       4.10411357       1.37037921       0.18657327      -0.09229636      -0.12680107
Si       4.08876930       6.83115029       4.11631511       0.18263092      -0.08122411      -0.13520280
Si       4.08854280       9.54908633       6.81760906       0.04251866       0.30746102       0.12569214
Si       4.10045469      12.30485222       9.56934158       0.01400011      -0.09083108       0.02901387
Si       6.84659566       4.07494418       4.10589668      -0.06266930       0.35885818      -0.18346642
Si       6.85006815       6.82468489       6.83242945      -0.30756415       0.15844879      -0.03027671
Si       6.82692485       9.56130941       9.56725507      -0.03892998       0.07953858       0.02970077
Si       6.84872862      12.32291691      12.30144847      -0.06710746      -0.15046319       0.11267802
Si       9.58779454       4.10202829       6.85376443      -0.29175729       0.00379894      -0.22837249
Si       9.56781095       6.83727328       9.57417244       0.10691701      -0.04434126      -0.04666675
Si       9.60053248       9.57876573      12.29773522      -0.51677873      -0.17722890       0.16752930
Si       9.57843392      12.30092472      15.03420054       0.00605087      -0.03980952       0.24863905
Si      12.31212013       4.10198338       9.57330345      -0.08872938      -0.02704331      -0.15857383
Si      12.30317396       6.83932853      12.30905752       0.05703795       0.01242342      -0.06592976
Si      12.28366444       9.57691860      15.02927784       0.29671297      -0.14716311       0.04198852
Si      12.28861112      12.30395893      17.77422802       0.29702241       0.02857942       0.04259010
Si       6.82751870       6.84427302       1.35422542       0.12697590      -0.08972093       0.19915889
Si       6.83038433       9.56440413       4.10147147      -0.00042053       0.19907034       0.01452387
Si       6.83724241      12.29446412       6.84347034       0.00920876       0.14131333      -0.16092771
Si       6.83508379      15.01991376       9.55093178       0.07615591       0.13014506       0.35170580
Si       9.56862075       6.83375302       4.10090314       0.07548726       0.02127121       0.02447478
Si       9.56846411       9.57250847       6.84570401      -0.15345007      -0.02618809      -0.13410718
Si       9.55763289      12.29282333       9.55958445       0.18087252       0.06206040       0.19059176
Si       9.57163310      15.05128269      12.30049447       0.14582878      -0.06613260       0.06002455
Si      12.27801711       6.81892277       6.82789715       0.32433221       0.17670754       0.10269994
Si      12.29745682       9.56616898       9.57090350       0.02991429       0.00347471       0.07548825
Si      12.29991665      12.31503644      12.29804769       0.05484642      -0.15151856       0.01884419
Si      12.29441093      15.04362197      15.02374162       0.10662047      -0.08902462       0.19085243
Si      15.04122120       6.83698823       9.56904327       0.00062050       0.02991201      -0.01851337
Si      15.05320705       9.56403080      12.32541085      -0.13396630       0.14533525      -0.04938041
Si      15.03506997      12.29177288      15.03979723       0.03737995       0.29577039       0.08099581
Si      15.02656183      15.03131566      17.77735855       0.24861788       0.08280281      -0.01187960
Si       9.57429976       9.56403119       1.37752122      -0.06959159       0.13129809      -0.14435141
Si       9.58031902      12.31890606       4.10723148      -0.07678600      -0.15050468      -0.16228694
Si       9.58237823      15.02002523       6.83304845      -0.21966231       0.21334615       0.06638815
Si       9.56007389      17.77431565       9.56480320       0.05623094       0.03194575       0.04768617
Si      12.30137253       9.58907462       4.10024014       0.05708866      -0.17469576       0.04533167
Si      12.30717204      12.30222035       6.83698465      -0.03375104       0.00767323       0.03202550
Si      12.30309428      15.04331646       9.58217077      -0.15219470      -0.00271941      -0.13416272
Si      12.31950805      17.77621959      12.31070333      -0.20088498      -0.04694419      -0.02666649
Si      15.02581564       9.56937410       6.84563041       0.17159528      -0.09888406      -0.17887158
Si      15.04598397      12.30665914       9.57938163      -0.12115546       0.00699589      -0.06209786
Si      15.04223195      15.05083628      12.30770146       0.01917288      -0.13842260       0.04933817
Si      15.03376730      17.77648181      15.00979209       0.16167255      -0.11624234       0.34700172
Si      17.77544332       9.53376874       9.55328306      -0.16281807       0.51207343       0.06349906
Si      17.77613215      12.30931834      12.29318358      -0.02446301      -0.01035126       0.09459923
Si      17.76449344      15.05253863      15.03425774       0.12700325      -0.15653097       0.11327730
Si      17.79404366      17.77310419      17.77746857      -0.06928460      -0.07480245      -0.20822525
Si       0.01489707       0.00154753      -0.00952136      -0.14083490      -0.00379794       0.17215502
Si      -0.00236895       2.73417133       2.72114484      -0.01019045       0.24108291       0.30611341
Si      -0.00382999       5.46139569       5.47832601       0.05522438       0.04669767      -0.11261650
Si      -0.00092555       8.20027983       8.20231078      -0.02726846      -0.02111756      -0.03594983
Si       2.73524972       0.00640540       2.72479513       0.04566206       0.01633330       0.08740669
Si       2.72260263       2.74557423       5.46495906       0.20090324      -0.14514372       0.19835431
Si       2.71885008       5.47325574       8.20800630       0.14751572      -0.08175830      -0.10495362
Si       2.71771135       8.20540260      10.94501861       0.20996816      -0.04111916      -0.23614434
Si       5.47105254       0.00655708       5.45503974      -0.14428055      -0.12596705       0.29435007
Si       5.47061908       2.73150124       8.19854470       0.06436944       0.02374117       0.08418043
Si       5.47601423       5.48361036      10.95560648      -0.13108751      -0.07776545      -0.22598717
Si       5.48045676       8.20201044      13.67548015      -0.09430210       0.04649873      -0.20729943
Si       8.20926708       0.00144904       8.20468025      -0.10711703       0.01438926      -0.00854424
Si       8.20983638       2.73393461      10.93036991      -0.07979591       0.04792574       0.00201434
Si       8.19745412       5.47515671      13.67198288       0.03281910      -0.04711870      -0.02240465
Si       8.20500095       8.20980858      16.40249471      -0.02837108      -0.03500323      -0.01577424
Si       2.74058098       2.73831586      -0.01184605      -0.09649670      -0.06867734       0.21896937
Si       2.74744155       5.46381016       2.71824130      -0.20350786       0.10851999       0.25521668
Si       2.72256807       8.19289733       5.46960416      -0.10042925       0.12904989      -0.20608710
Si       2.73028000      10.93402964       8.20956962       0.09203305       0.02327118      -0.21848577
Si       5.47070743       2.73768791       2.73889054      -0.08930893      -0.09421670      -0.02739010
Si       5.47347002       5.44773808       5.46543805       0.04720424       0.14351083       0.00759070
Si       5.44550658       8.20346838       8.20332627       0.27163478      -0.10182364      -0.17261734
Si       5.47776400      10.94927430      10.93969053      -0.04230991      -0.09140439       0.00743239
Si       8.19659524       2.73937905       5.46380325       0.37542384      -0.08813757       0.14127822
Si       8.20158492       5.47867897       8.19779489       0.08980906      -0.15457497       0.16324253
Si       8.20965564       8.20988180      10.92811486       0.01764796       0.03451371       0.13223267
Si       8.21133779      10.94438362      13.67297221      -0.05637768      -0.13530567      -0.06838696
Si      10.92826579       2.72593538       8.19799598       0.22559893       0.14441103       0.14826537
Si      10.94131497       5.45926136      10.94203790      -0.07141112       0.08648516      -0.00875796
Si      10.92347147       8.20106710      13.67304943       0.12593866      -0.06077487       0.00434058
Si      10.96034033      10.92362480      16.42096327      -0.39256579       0.11328372      -0.13103979
Si       5.46880710       5.47292933       0.00168556       0.02189925      -0.17656034      -0.12565896
Si       5.47175595       8.20157093       2.74933276      -0.06075765      -0.15459225      -0.02711835
Si       5.46274397      10.94872030       5.46263876       0.04759872      -0.26720476       0.13945735
Si       5.46670616      13.66096851       8.20792284      -0.05126311       0.01353655      -0.15923358
Si       8.21605011       5.46804405       2.73282340      -0.27836854       0.02538976      -0.01771750
Si       8.19045268       8.20081486       5.45315449       0.18689270       0.05345678       0.21137609
Si       8.19247007      10.93966582       8.21656274      -0.01107034      -0.18454940      -0.15147909
Si       8.22969096      13.66582228      10.95201578      -0.21412435       0.15881792      -0.28805540
Si      10.93832655       5.46730513       5.47340837      -0.15425549      -0.11659035      -0.16293079
Si      10.93650819       8.20421174       8.19928927      -0.03010712      -0.08315201       0.04534512
Si      10.92190793      10.92196171      10.94419523       0.30389527       0.32338941      -0.24635907
Si      10.93312202      13.66572724      13.67203801      -0.00308278       0.12203270      -0.09361922
Si      13.67812852       5.47062125       8.19681205      -0.16103457       0.03305406       0.07101875
Si      13.68244213       8.21889964      10.94260834      -0.07198726      -0.12927452       0.00565534
Si      13.67991583      10.94981756      13.68325394      -0.21235646      -0.15867360      -0.20729051
Si      13.67632019      13.67767160      16.41143973      -0.20317691      -0.10068084      -0.14658076
Si       8.19062547       8.21011502      -0.01305606       0.22186116      -0.09201653       0.20145934
Si       8.19365286      10.95043361       2.74319446       0.14839022      -0.09689050      -0.06218771
Si       8.21647283      13.66897139       5.45755994      -0.25881255       0.07855718       0.12271030
Si       8.19919448      16.40699862       8.20416249       0.15781139      -0.21811791      -0.07530524
Si      10.94722583       8.19949508       2.73831260      -0.04308275       0.03417117       0.03396810
Si      10.92600275      10.94190113       5.46911351       0.09558880      -0.01064561       0.07998530
Si      10.92839089      13.66932984       8.20153085       0.18507221      -0.08652130       0.13595519
Si      10.93318747      16.42369172      10.93667832       0.06631740      -0.04187089       0.04289589
Si      13.66774024       8.18213327       5.46014036      -0.08184475       0.21258368       0.04526782
Si      13.66754847      10.93053943       8.21718968       0.01657386       0.12957339      -0.03724921
Si      13.66852982      13.68457257      10.93827982       0.10715454      -0.05595318       0.02814096
Si      13.67055148      16.40509034      13.67199091      -0.00350614      -0.04132877      -0.06586992
Si      16.42165732       8.17991168       8.18335715      -0.25308399       0.14131134       0.08564070
Si      16.39903767      10.93754324      10.94456382       0.20155662      -0.20293874      -0.13387070
Si      16.40920025      13.66784567      13.68214339      -0.07370839       0.03254479      -0.14405212
Si      16.41477133      16.40781888      16.41586970      -0.20115482       0.07675784      -0.07813267
