64
Lattice="10.862 0.0 0.0 0.0 10.862 0.0 0.0 0.0 10.862" Properties=species:S:1:pos:R:3:forces:R:3 pbc="T T T"
Si       0.00999997       0.00000000       0.00000000      -0.13225343       0.00000000      -0.00000000
Si       0.00000000       0.00000000       5.43100000       0.00045475       0.00000000      -0.00000000
Si       0.00000000       2.71550000       2.71550000      -0.00423486      -0.00093004      -0.00093004
Si       0.00000000       2.71550000       8.14650000      -0.00422437       0.00091803      -0.00091803
Si       0.00000000       5.43100000       0.00000000       0.00045475       0.00000000      -0.00000000
Si       0.00000000       5.43100000       5.43100000      -0.00393300       0.00000000      -0.00000000
Si       0.00000000       8.14650000       2.71550000      -0.00422437      -0.00091803       0.00091803
Si       0.00000000       8.14650000       8.14650000      -0.00423486       0.00093004       0.00093004
Si       1.35775000       1.35775000       1.35775000       0.03246594       0.02312972       0.02312972
Si       1.35775000       1.35775000       6.78875000      -0.00051168       0.00039130       0.00033623
Si       1.35775000       4.07325000       4.07325000       0.00207068      -0.00023834      -0.00023834
Si       1.35775000       4.07325000       9.50425000      -0.00051168      -0.00033623      -0.00039130
Si       1.35775000       6.78875000       1.35775000      -0.00051168       0.00033623       0.00039130
Si       1.35775000       6.78875000       6.78875000       0.00207068       0.00023834       0.00023834
Si       1.35775000       9.50425000       4.07325000      -0.00051168      -0.00039130      -0.00033623
Si       1.35775000       9.50425000       9.50425000       0.03246594      -0.02312972      -0.02312972
Si       2.71550000       0.00000000       2.71550000       0.00188949       0.00092898       0.00183987
Si       2.71550000       0.00000000       8.14650000       0.00188949      -0.00092898      -0.00183987
Si       2.71550000       2.71550000       0.00000000       0.00188949       0.00183987       0.00092898
Si       2.71550000       2.71550000       5.43100000       0.00035312      -0.00061376       0.00007996
Si       2.71550000       5.43100000       2.71550000       0.00035312       0.00007996      -0.00061376
Si       2.71550000       5.43100000       8.14650000       0.00035312      -0.00007996       0.00061376
Si       2.71550000       8.14650000       0.00000000       0.00188949      -0.00183987      -0.00092898
Si       2.71550000       8.14650000       5.43100000       0.00035312       0.00061376      -0.00007996
Si       4.07325000       1.35775000       4.07325000       0.00022496      -0.00024082       0.00022501
Si       4.07325000       1.35775000       9.50425000      -0.00010707      -0.00033352       0.00033352
Si       4.07325000       4.07325000       1.35775000       0.00022496       0.00022501      -0.00024082
Si       4.07325000       4.07325000       6.78875000      -0.00016944       0.00024634      -0.00024634
Si       4.07325000       6.78875000       4.07325000      -0.00016944      -0.00024634       0.00024634
Si       4.07325000       6.78875000       9.50425000       0.00022496      -0.00022501       0.00024082
Si       4.07325000       9.50425000       1.35775000      -0.00010707       0.00033352      -0.00033352
Si       4.07325000       9.50425000       6.78875000       0.00022496       0.00024082      -0.00022501
Si       5.43100000       0.00000000       0.00000000       0.00017003       0.00000000      -0.00000000
Si       5.43100000       0.00000000       5.43100000      -0.00002977       0.00000000      -0.00000000
Si       5.43100000       2.71550000       2.71550000      -0.00003007      -0.00007912      -0.00007912
Si       5.43100000       2.71550000       8.14650000      -0.00002732       0.00007988      -0.00007988
Si       5.43100000       5.43100000       0.00000000      -0.00002977       0.00000000      -0.00000000
Si       5.43100000       5.43100000       5.43100000       0.00020637       0.00000000      -0.00000000
Si       5.43100000       8.14650000       2.71550000      -0.00002732      -0.00007988       0.00007988
Si       5.43100000       8.14650000       8.14650000      -0.00003007       0.00007912       0.00007912
Si       6.78875000       1.35775000       1.35775000      -0.00010706       0.00033405       0.00033405
Si       6.78875000       1.35775000       6.78875000       0.00021977       0.00023534       0.00022071
Si       6.78875000       4.07325000       4.07325000      -0.00016966      -0.00024741      -0.00024741
Si       6.78875000       4.07325000       9.50425000       0.00021977      -0.00022071      -0.00023534
Si       6.78875000       6.78875000       1.35775000       0.00021977       0.00022071       0.00023534
Si       6.78875000       6.78875000       6.78875000      -0.00016966       0.00024741       0.00024741
Si       6.78875000       9.50425000       4.07325000       0.00021977      -0.00023534      -0.00022071
Si       6.78875000       9.50425000       9.50425000      -0.00010706      -0.00033405      -0.00033405
Si       8.14650000       0.00000000       2.71550000       0.00187327       0.00091833      -0.00182755
Si       8.14650000       0.00000000       8.14650000       0.00187327      -0.00091833       0.00182755
Si       8.14650000       2.71550000       0.00000000       0.00187327      -0.00182755       0.00091833
Si       8.14650000       2.71550000       5.43100000       0.00035276       0.00061538       0.00007997
Si       8.14650000       5.43100000       2.71550000       0.00035276       0.00007997       0.00061538
Si       8.14650000       5.43100000       8.14650000       0.00035276      -0.00007997      -0.00061538
Si       8.14650000       8.14650000       0.00000000       0.00187327       0.00182755      -0.00091833
Si       8.14650000       8.14650000       5.43100000       0.00035276      -0.00061538      -0.00007997
Si       9.50425000       1.35775000       4.07325000      -0.00050656      -0.00039497       0.00033222
Si       9.50425000       1.35775000       9.50425000       0.03216021      -0.02252441       0.02252441
Si       9.50425000       4.07325000       1.35775000      -0.00050656       0.00033222      -0.00039497
Si       9.50425000       4.07325000       6.78875000       0.00206278       0.00023714      -0.00023714
Si       9.50425000       6.78875000       4.07325000       0.00206278      -0.00023714       0.00023714
Si       9.50425000       6.78875000       9.50425000      -0.00050656      -0.00033222       0.00039497
Si       9.50425000       9.50425000       1.35775000       0.03216021       0.02252441      -0.02252441
Si       9.50425000       9.50425000       6.78875000      -0.00050656       0.00039497      -0.00033222
