Ba Ga Ge
 1.0000000000000000
    21.6888123800000017    0.0046323200000000   -0.0046328000000000
     0.0046328000000000   21.6888123800000017   -0.0046323200000000
    -0.0046323200000000   -0.0046328000000000   21.6888123800000017
 Ba  Ga  Ge 
  64 128 240
Direct
  0.0002645250000000  0.0002645300000000  0.4997355000000000
  0.5002645250000000  0.0002645300000000  0.4997354999999999
  0.0002645250000000  0.5002645300000000  0.4997354999999999
  0.5002645250000000  0.5002645300000000  0.4997354999999999
  0.0002645250000000  0.0002645300000000  0.9997354999999999
  0.5002645250000000  0.0002645300000000  0.9997355000000001
  0.0002645250000000  0.5002645300000000  0.9997354999999999
  0.5002645250000000  0.5002645300000000  0.9997355000000001
  0.2493440750000001  0.2493440800000000  0.2506559450000000
  0.7493440750000000  0.2493440800000001  0.2506559450000000
  0.2493440750000001  0.7493440800000000  0.2506559450000000
  0.7493440750000000  0.7493440800000001  0.2506559450000000
  0.2493440750000001  0.2493440800000000  0.7506559450000000
  0.7493440750000000  0.2493440800000000  0.7506559450000000
  0.2493440750000001  0.7493440800000000  0.7506559450000000
  0.7493440750000000  0.7493440800000001  0.7506559450000000
  0.1239283250000000  0.2462591950000001  0.4959216200000001
  0.6239283250000001  0.2462591950000001  0.4959216200000001
  0.1239283250000000  0.7462591950000000  0.4959216200000001
  0.6239283250000001  0.7462591950000000  0.4959216200000001
  0.1239283250000000  0.2462591950000001  0.9959216200000000
  0.6239283250000001  0.2462591950000000  0.9959216200000001
  0.1239283250000000  0.7462591949999999  0.9959216200000000
  0.6239283250000001  0.7462591949999999  0.9959216200000000
  0.3756507600000000  0.2505262450000000  0.4992743200000000
  0.8756507600000001  0.2505262450000000  0.4992743200000000
  0.3756507600000000  0.7505262449999999  0.4992743199999999
  0.8756507600000001  0.7505262449999999  0.4992743199999999
  0.3756507600000000  0.2505262450000000  0.9992743200000000
  0.8756507600000001  0.2505262450000000  0.9992743200000000
  0.3756507600000000  0.7505262450000001  0.9992743200000000
  0.8756507600000001  0.7505262449999999  0.9992743200000000
  0.2505262400000000  0.0007252550000000  0.1243492650000000
  0.7505262400000001  0.0007252550000000  0.1243492650000000
  0.2505262400000000  0.5007252550000001  0.1243492650000000
  0.7505262400000001  0.5007252550000000  0.1243492650000000
  0.2505262400000000  0.0007252550000000  0.6243492649999999
  0.7505262400000001  0.0007252550000000  0.6243492649999999
  0.2505262400000001  0.5007252550000000  0.6243492650000000
  0.7505262400000001  0.5007252550000000  0.6243492650000000
  0.0040784050000000  0.1239283300000000  0.2537408350000000
  0.5040784050000000  0.1239283300000000  0.2537408350000000
  0.0040784050000000  0.6239283300000000  0.2537408349999999
  0.5040784050000000  0.6239283300000000  0.2537408349999999
  0.0040784050000000  0.1239283300000000  0.7537408350000000
  0.5040784050000000  0.1239283300000000  0.7537408349999999
  0.0040784050000000  0.6239283300000000  0.7537408350000000
  0.5040784050000000  0.6239283300000000  0.7537408349999999
  0.2462591900000000  0.0040784100000000  0.3760717000000000
  0.7462591900000000  0.0040784100000000  0.3760717000000000
  0.2462591900000000  0.5040784100000000  0.3760717000000000
  0.7462591900000000  0.5040784100000000  0.3760717000000000
  0.2462591900000000  0.0040784100000000  0.8760716999999999
  0.7462591900000000  0.0040784100000000  0.8760716999999999
  0.2462591900000000  0.5040784100000000  0.8760717000000001
  0.7462591900000000  0.5040784100000000  0.8760716999999999
  0.0007252500000000  0.3756507650000000  0.2494737849999999
  0.5007252500000000  0.3756507650000000  0.2494737850000000
  0.0007252500000000  0.8756507650000002  0.2494737850000000
  0.5007252500000000  0.8756507650000003  0.2494737849999999
  0.0007252500000000  0.3756507650000000  0.7494737849999998
  0.5007252500000000  0.3756507650000000  0.7494737849999998
  0.0007252500000000  0.8756507649999999  0.7494737849999998
  0.5007252500000000  0.8756507650000002  0.7494737850000001
  0.4084032900000000  0.4084032950000000  0.0915967350000000
  0.9084032900000000  0.4084032950000000  0.0915967350000000
  0.4084032900000000  0.9084032950000003  0.0915967350000000
  0.9084032900000000  0.9084032950000003  0.0915967350000000
  0.4084032900000000  0.4084032950000000  0.5915967350000000
  0.9084032900000000  0.4084032950000000  0.5915967350000000
  0.4084032900000000  0.9084032950000001  0.5915967350000000
  0.9084032900000000  0.9084032950000001  0.5915967350000000
  0.3755487900000001  0.4996339050000000  0.2492952250000000
  0.8755487900000002  0.4996339050000000  0.2492952250000000
  0.3755487900000001  0.9996339050000003  0.2492952250000000
  0.8755487900000002  0.9996339050000000  0.2492952250000000
  0.3755487900000001  0.4996339050000000  0.7492952249999999
  0.8755487900000002  0.4996339050000000  0.7492952250000001
  0.3755487900000001  0.9996339050000000  0.7492952249999999
  0.8755487900000002  0.9996339050000000  0.7492952249999999
  0.4996339000000000  0.2507048000000000  0.1244512300000000
  0.9996339000000001  0.2507048000000000  0.1244512300000000
  0.4996339000000000  0.7507048000000001  0.1244512300000000
  0.9996339000000001  0.7507048000000001  0.1244512300000000
  0.4996339000000000  0.2507048000000000  0.6244512299999999
  0.9996339000000001  0.2507048000000000  0.6244512299999999
  0.4996339000000000  0.7507048000000002  0.6244512300000000
  0.9996339000000001  0.7507048000000002  0.6244512300000000
  0.2507048000000000  0.3755487950000000  0.0003661250000000
  0.7507048000000002  0.3755487950000002  0.0003661250000000
  0.2507048000000000  0.8755487950000000  0.0003661250000000
  0.7507048000000002  0.8755487950000000  0.0003661250000000
  0.2507048000000000  0.3755487950000000  0.5003661250000000
  0.7507048000000002  0.3755487950000000  0.5003661250000000
  0.2507048000000000  0.8755487950000003  0.5003661250000000
  0.7507048000000002  0.8755487950000003  0.5003661250000000
  0.0001226650000000  0.3456895300000000  0.4400666050000000
  0.5001226650000000  0.3456895300000000  0.4400666050000000
  0.0001226650000000  0.8456895300000000  0.4400666050000000
  0.5001226650000000  0.8456895300000001  0.4400666050000000
  0.0001226650000000  0.3456895300000000  0.9400666049999998
  0.5001226650000000  0.3456895300000000  0.9400666050000001
  0.0001226650000000  0.8456895300000000  0.9400666049999998
  0.5001226650000000  0.8456895300000001  0.9400666050000001
  0.4988416650000000  0.1534993700000000  0.4380986300000000
  0.9988416650000002  0.1534993700000000  0.4380986300000000
  0.4988416650000000  0.6534993700000001  0.4380986300000000
  0.9988416650000002  0.6534993700000000  0.4380986299999999
  0.4988416650000000  0.1534993700000000  0.9380986299999999
  0.9988416650000002  0.1534993700000000  0.9380986300000002
  0.4988416650000000  0.6534993700000000  0.9380986299999999
  0.9988416650000002  0.6534993700000000  0.9380986300000002
  0.1534993700000000  0.0619014000000000  0.0011583550000000
  0.6534993700000000  0.0619014000000000  0.0011583550000000
  0.1534993700000000  0.5619014000000000  0.0011583550000000
  0.6534993700000000  0.5619013999999999  0.0011583550000000
  0.1534993700000000  0.0619014000000000  0.5011583550000001
  0.6534993700000000  0.0619014000000000  0.5011583550000001
  0.1534993700000000  0.5619013999999999  0.5011583550000001
  0.6534993700000000  0.5619013999999999  0.5011583550000001
  0.0599334200000000  0.0001226700000000  0.1543104950000000
  0.5599334200000000  0.0001226700000000  0.1543104950000000
  0.0599334200000000  0.5001226700000000  0.1543104950000000
  0.5599334200000000  0.5001226700000000  0.1543104950000000
  0.0599334200000000  0.0001226700000000  0.6543104950000000
  0.5599334200000000  0.0001226700000000  0.6543104950000000
  0.0599334200000000  0.5001226700000000  0.6543104950000000
  0.5599334200000000  0.5001226700000000  0.6543104950000000
  0.3456895250000000  0.0599334200000000  0.4998773600000000
  0.8456895250000001  0.0599334200000000  0.4998773600000000
  0.3456895250000000  0.5599334200000000  0.4998773599999999
  0.8456895250000001  0.5599334200000000  0.4998773600000000
  0.3456895250000000  0.0599334200000000  0.9998773599999999
  0.8456895250000001  0.0599334200000000  0.9998773599999998
  0.3456895250000000  0.5599334200000000  0.9998773599999999
  0.8456895250000001  0.5599334200000000  0.9998773599999998
  0.0619013950000000  0.4988416700000000  0.3465002000000000
  0.5619013950000000  0.4988416700000000  0.3465001999999999
  0.0619013950000000  0.9988416700000000  0.3465002000000000
  0.5619013950000000  0.9988416699999999  0.3465002000000000
  0.0619013950000000  0.4988416700000000  0.8465001999999999
  0.5619013950000000  0.4988416700000000  0.8465001999999998
  0.0619013950000000  0.9988416700000002  0.8465001999999999
  0.5619013950000000  0.9988416700000002  0.8465001999999999
  0.0963961350000000  0.2510456249999999  0.3118593250000000
  0.5963961350000000  0.2510456249999999  0.3118593250000000
  0.0963961350000000  0.7510456249999999  0.3118593250000000
  0.5963961350000000  0.7510456249999997  0.3118593250000000
  0.0963961350000000  0.2510456249999999  0.8118593249999999
  0.5963961350000000  0.2510456250000000  0.8118593250000001
  0.0963961350000000  0.7510456249999999  0.8118593249999999
  0.5963961350000000  0.7510456249999999  0.8118593250000001
  0.4039506450000000  0.2499367500000000  0.3097113600000000
  0.9039506450000000  0.2499367500000000  0.3097113600000000
  0.4039506450000000  0.7499367500000003  0.3097113599999999
  0.9039506450000000  0.7499367500000000  0.3097113600000000
  0.4039506450000000  0.2499367500000000  0.8097113600000000
  0.9039506450000000  0.2499367500000000  0.8097113599999999
  0.4039506450000000  0.7499367500000000  0.8097113600000000
  0.9039506450000000  0.7499367500000000  0.8097113599999999
  0.2499367450000000  0.1902886650000000  0.0960493750000000
  0.7499367450000000  0.1902886650000000  0.0960493750000000
  0.2499367450000000  0.6902886649999999  0.0960493750000000
  0.7499367450000000  0.6902886649999999  0.0960493750000000
  0.2499367450000000  0.1902886650000000  0.5960493750000000
  0.7499367450000000  0.1902886650000000  0.5960493750000000
  0.2499367450000000  0.6902886650000000  0.5960493750000000
  0.7499367450000000  0.6902886650000000  0.5960493750000000
  0.2510456200000000  0.1881407000000000  0.4036038899999999
  0.7510456200000000  0.1881407000000000  0.4036038899999999
  0.2510456200000000  0.6881406999999999  0.4036038899999999
  0.7510456200000000  0.6881406999999999  0.4036038899999999
  0.2510456200000000  0.1881407000000000  0.9036038899999997
  0.7510456200000000  0.1881407000000000  0.9036038899999997
  0.2510456200000000  0.6881406999999999  0.9036038899999997
  0.7510456200000000  0.6881406999999999  0.9036038899999997
  0.1881406950000000  0.0963961400000000  0.2489544000000000
  0.6881406950000001  0.0963961400000000  0.2489544000000000
  0.1881406950000000  0.5963961400000000  0.2489543999999999
  0.6881406950000001  0.5963961400000000  0.2489544000000000
  0.1881406950000000  0.0963961400000000  0.7489543999999999
  0.6881406950000001  0.0963961400000000  0.7489544000000000
  0.1881406950000000  0.5963961400000000  0.7489543999999999
  0.6881406950000001  0.5963961400000000  0.7489543999999999
  0.1902886650000000  0.4039506499999996  0.2500632800000000
  0.6902886650000001  0.4039506499999996  0.2500632800000000
  0.1902886650000000  0.9039506499999997  0.2500632800000000
  0.6902886650000001  0.9039506499999997  0.2500632800000000
  0.1902886650000000  0.4039506499999996  0.7500632800000000
  0.6902886650000001  0.4039506499999996  0.7500632799999999
  0.1902886650000000  0.9039506499999995  0.7500632800000000
  0.6902886650000001  0.9039506499999995  0.7500632799999999
  0.0898317500000000  0.0937420650000000  0.0930800950000000
  0.5898317500000000  0.0937420650000000  0.0930800950000000
  0.0898317500000000  0.5937420650000000  0.0930800950000000
  0.5898317500000000  0.5937420650000000  0.0930800950000000
  0.0898317500000000  0.0937420650000000  0.5930800950000000
  0.5898317500000000  0.0937420650000000  0.5930800950000000
  0.0898317500000000  0.5937420650000000  0.5930800950000000
  0.5898317500000000  0.5937420650000000  0.5930800950000000
  0.0937420600000000  0.4069199350000000  0.4101682750000000
  0.5937420600000000  0.4069199350000000  0.4101682750000000
  0.0937420600000000  0.9069199349999999  0.4101682750000000
  0.5937420600000000  0.9069199349999999  0.4101682750000000
  0.0937420600000000  0.4069199350000001  0.9101682749999999
  0.5937420600000000  0.4069199350000001  0.9101682749999999
  0.0937420600000000  0.9069199349999999  0.9101682749999999
  0.5937420600000000  0.9069199349999999  0.9101682750000001
  0.4069199300000000  0.0898317550000000  0.4062579650000000
  0.9069199299999999  0.0898317550000000  0.4062579650000000
  0.4069199300000000  0.5898317550000000  0.4062579650000000
  0.9069199299999999  0.5898317550000000  0.4062579650000000
  0.4069199300000000  0.0898317550000000  0.9062579650000000
  0.9069199299999999  0.0898317550000000  0.9062579650000000
  0.4069199300000000  0.5898317550000000  0.9062579650000001
  0.9069199299999999  0.5898317550000000  0.9062579650000000
  0.1561019600000000  0.1600867700000000  0.1569522250000000
  0.6561019600000001  0.1600867700000000  0.1569522250000000
  0.1561019600000000  0.6600867699999999  0.1569522250000000
  0.6561019600000001  0.6600867699999999  0.1569522250000000
  0.1561019600000000  0.1600867700000000  0.6569522249999999
  0.6561019600000001  0.1600867700000000  0.6569522249999998
  0.1561019600000000  0.6600867699999999  0.6569522249999998
  0.6561019600000001  0.6600867699999999  0.6569522249999999
  0.1600867650000000  0.3430482599999999  0.3438985200000000
  0.6600867650000000  0.3430482599999999  0.3438985200000000
  0.1600867650000000  0.8430482600000002  0.3438985200000000
  0.6600867650000000  0.8430482600000002  0.3438985200000000
  0.1600867650000000  0.3430482599999999  0.8438985199999999
  0.6600867650000000  0.3430482599999999  0.8438985199999999
  0.1600867650000000  0.8430482600000000  0.8438985199999999
  0.6600867650000000  0.8430482600000000  0.8438985199999999
  0.3430482550000001  0.1561019650000000  0.3399137149999999
  0.8430482550000001  0.1561019650000000  0.3399137149999999
  0.3430482550000001  0.6561019650000000  0.3399137149999999
  0.8430482550000001  0.6561019650000000  0.3399137149999999
  0.3430482550000001  0.1561019650000000  0.8399137149999999
  0.8430482550000001  0.1561019650000000  0.8399137150000000
  0.3430482550000001  0.6561019650000000  0.8399137150000000
  0.8430482550000001  0.6561019650000000  0.8399137150000000
  0.3422363850000000  0.3422363850000000  0.1577640950000000
  0.8422363850000001  0.3422363850000000  0.1577640950000000
  0.3422363850000000  0.8422363850000002  0.1577640950000000
  0.8422363850000001  0.8422363850000001  0.1577640950000000
  0.3422363850000000  0.3422363850000001  0.6577640950000000
  0.8422363850000001  0.3422363850000001  0.6577640950000000
  0.3422363850000000  0.8422363850000001  0.6577640950000000
  0.8422363850000001  0.8422363850000001  0.6577640950000000
  0.4064445800000000  0.4085099050000000  0.4088850450000000
  0.9064445800000002  0.4085099050000000  0.4088850449999999
  0.4064445800000000  0.9085099050000002  0.4088850449999999
  0.9064445800000002  0.9085099050000002  0.4088850449999999
  0.4064445800000000  0.4085099050000000  0.9088850450000000
  0.9064445800000002  0.4085099050000001  0.9088850450000000
  0.4064445800000000  0.9085099050000002  0.9088850450000000
  0.9064445800000002  0.9085099050000000  0.9088850450000000
  0.4085099000000000  0.0911149800000000  0.0935554450000000
  0.9085099000000000  0.0911149800000000  0.0935554450000000
  0.4085099000000000  0.5911149800000000  0.0935554450000000
  0.9085099000000000  0.5911149800000000  0.0935554450000000
  0.4085099000000000  0.0911149800000000  0.5935554449999999
  0.9085099000000000  0.0911149800000000  0.5935554449999999
  0.4085099000000000  0.5911149800000000  0.5935554450000000
  0.9085099000000000  0.5911149799999998  0.5935554450000000
  0.0911149750000000  0.4064445850000000  0.0914901250000000
  0.5911149750000000  0.4064445850000000  0.0914901250000000
  0.0911149750000000  0.9064445850000002  0.0914901250000000
  0.5911149750000000  0.9064445850000001  0.0914901250000000
  0.0911149750000000  0.4064445850000001  0.5914901250000000
  0.5911149750000000  0.4064445850000000  0.5914901250000000
  0.0911149750000000  0.9064445850000001  0.5914901250000000
  0.5911149750000000  0.9064445850000001  0.5914901250000000
  0.0923900950000000  0.0923900950000000  0.4076099299999999
  0.5923900950000001  0.0923900950000000  0.4076099299999998
  0.0923900950000000  0.5923900950000001  0.4076099299999999
  0.5923900950000001  0.5923900950000001  0.4076099299999999
  0.0923900950000000  0.0923900950000000  0.9076099299999999
  0.5923900950000001  0.0923900950000000  0.9076099299999999
  0.0923900950000000  0.5923900950000001  0.9076099299999999
  0.5923900950000001  0.5923900950000001  0.9076099299999999
  0.3413090950000000  0.3430884300000000  0.3415075250000000
  0.8413090950000001  0.3430884300000001  0.3415075250000000
  0.3413090950000000  0.8430884299999999  0.3415075250000000
  0.8413090950000001  0.8430884299999999  0.3415075249999999
  0.3413090950000000  0.3430884300000000  0.8415075249999999
  0.8413090950000001  0.3430884300000000  0.8415075249999999
  0.3413090950000000  0.8430884300000002  0.8415075249999999
  0.8413090950000001  0.8430884300000000  0.8415075249999997
  0.3430884250000000  0.1584929600000000  0.1586913900000000
  0.8430884250000000  0.1584929600000000  0.1586913900000000
  0.3430884250000000  0.6584929600000000  0.1586913900000000
  0.8430884250000000  0.6584929600000000  0.1586913900000000
  0.3430884250000000  0.1584929600000000  0.6586913900000000
  0.8430884250000000  0.1584929600000000  0.6586913900000000
  0.3430884250000000  0.6584929600000000  0.6586913900000000
  0.8430884250000000  0.6584929600000000  0.6586913900000000
  0.1584929550000000  0.3413090950000000  0.1569120550000000
  0.6584929550000000  0.3413090950000000  0.1569120550000000
  0.1584929550000000  0.8413090950000000  0.1569120550000000
  0.6584929550000000  0.8413090950000000  0.1569120550000000
  0.1584929550000000  0.3413090950000000  0.6569120550000001
  0.6584929550000000  0.3413090950000000  0.6569120550000001
  0.1584929550000000  0.8413090950000000  0.6569120550000001
  0.6584929550000000  0.8413090950000000  0.6569120549999999
  0.1575743150000000  0.1575743200000000  0.3424261650000000
  0.6575743150000000  0.1575743200000000  0.3424261650000000
  0.1575743150000000  0.6575743200000000  0.3424261649999999
  0.6575743150000000  0.6575743199999999  0.3424261650000000
  0.1575743150000000  0.1575743200000000  0.8424261650000000
  0.6575743150000000  0.1575743200000000  0.8424261649999999
  0.1575743150000000  0.6575743199999999  0.8424261650000000
  0.6575743150000000  0.6575743199999999  0.8424261649999999
  0.1253129050000000  0.4990872500000000  0.2492558100000000
  0.6253129050000001  0.4990872500000001  0.2492558100000000
  0.1253129050000000  0.9990872499999999  0.2492558100000000
  0.6253129050000001  0.9990872500000000  0.2492558100000000
  0.1253129050000000  0.4990872500000000  0.7492558099999999
  0.6253129050000001  0.4990872500000001  0.7492558099999999
  0.1253129050000000  0.9990872500000000  0.7492558099999999
  0.6253129050000001  0.9990872500000002  0.7492558099999999
  0.2507442100000000  0.1253129099999999  0.0009127750000000
  0.7507442100000000  0.1253129099999999  0.0009127750000000
  0.2507442100000000  0.6253129100000000  0.0009127750000000
  0.7507442100000000  0.6253129100000000  0.0009127750000000
  0.2507442100000000  0.1253129099999999  0.5009127750000000
  0.7507442100000000  0.1253129099999999  0.5009127750000000
  0.2507442100000000  0.6253129099999999  0.5009127750000000
  0.7507442100000000  0.6253129100000000  0.5009127750000000
  0.4990872500000000  0.2507442150000000  0.3746871199999999
  0.9990872500000001  0.2507442150000000  0.3746871199999999
  0.4990872500000000  0.7507442150000002  0.3746871199999998
  0.9990872500000001  0.7507442150000002  0.3746871199999999
  0.4990872500000000  0.2507442150000000  0.8746871200000000
  0.9990872500000001  0.2507442150000000  0.8746871199999998
  0.4990872500000000  0.7507442150000001  0.8746871200000000
  0.9990872500000001  0.7507442150000001  0.8746871199999998
  0.4985112600000000  0.1558432500000000  0.0575409550000000
  0.9985112600000000  0.1558432500000000  0.0575409550000000
  0.4985112600000000  0.6558432500000000  0.0575409550000000
  0.9985112600000000  0.6558432500000000  0.0575409550000000
  0.4985112600000000  0.1558432500000000  0.5575409550000000
  0.9985112600000000  0.1558432500000000  0.5575409550000000
  0.4985112600000000  0.6558432500000001  0.5575409550000000
  0.9985112600000000  0.6558432500000000  0.5575409550000000
  0.4994764950000001  0.3443353300000001  0.0568891200000000
  0.9994764950000002  0.3443353300000001  0.0568891200000000
  0.4994764950000001  0.8443353300000001  0.0568891200000000
  0.9994764950000002  0.8443353300000001  0.0568891200000000
  0.4994764950000001  0.3443353300000001  0.5568891200000000
  0.9994764950000002  0.3443353300000001  0.5568891200000000
  0.4994764950000001  0.8443353300000002  0.5568891200000000
  0.9994764950000002  0.8443353300000001  0.5568891200000000
  0.1558432450000000  0.4424590750000001  0.0014887650000000
  0.6558432450000000  0.4424590750000001  0.0014887650000000
  0.1558432450000000  0.9424590750000001  0.0014887650000000
  0.6558432450000000  0.9424590750000001  0.0014887650000000
  0.1558432450000000  0.4424590750000001  0.5014887649999999
  0.6558432450000000  0.4424590750000002  0.5014887649999999
  0.1558432450000000  0.9424590750000001  0.5014887649999998
  0.6558432450000000  0.9424590750000000  0.5014887649999998
  0.4424590700000001  0.4985112650000001  0.3441563200000000
  0.9424590700000002  0.4985112650000001  0.3441563200000000
  0.4424590700000001  0.9985112650000001  0.3441563200000000
  0.9424590700000002  0.9985112650000001  0.3441563200000000
  0.4424590700000001  0.4985112650000001  0.8441563199999998
  0.9424590700000002  0.4985112650000003  0.8441563199999998
  0.4424590700000001  0.9985112650000001  0.8441563199999998
  0.9424590700000002  0.9985112650000000  0.8441563200000001
  0.4431109050000000  0.4994764999999999  0.1556647000000000
  0.9431109049999999  0.4994764999999999  0.1556647000000000
  0.4431109050000000  0.9994765000000000  0.1556647000000000
  0.9431109049999999  0.9994765000000000  0.1556647000000000
  0.4431109050000000  0.4994764999999999  0.6556647000000000
  0.9431109049999999  0.4994764999999999  0.6556647000000000
  0.4431109050000000  0.9994765000000000  0.6556647000000000
  0.9431109049999999  0.9994765000000000  0.6556646999999999
  0.3443353250000000  0.4431109100000002  0.0005235300000000
  0.8443353250000001  0.4431109100000002  0.0005235300000000
  0.3443353250000000  0.9431109100000002  0.0005235300000000
  0.8443353250000001  0.9431109100000002  0.0005235300000000
  0.3443353250000000  0.4431109100000002  0.5005235300000000
  0.8443353250000001  0.4431109100000004  0.5005235300000000
  0.3443353250000000  0.9431109100000005  0.5005235300000000
  0.8443353250000001  0.9431109100000002  0.5005235300000000
  0.0937402650000000  0.2511327050000000  0.1926476800000000
  0.5937402650000001  0.2511327050000000  0.1926476800000000
  0.0937402650000000  0.7511327050000001  0.1926476800000000
  0.5937402650000001  0.7511327050000001  0.1926476800000000
  0.0937402650000000  0.2511327050000000  0.6926476799999999
  0.5937402650000001  0.2511327050000000  0.6926476800000000
  0.0937402650000000  0.7511327050000000  0.6926476800000000
  0.5937402650000001  0.7511327050000000  0.6926476800000000
  0.4055043450000001  0.2503548050000000  0.1926699400000000
  0.9055043450000002  0.2503548050000000  0.1926699400000000
  0.4055043450000001  0.7503548050000002  0.1926699400000000
  0.9055043450000002  0.7503548050000000  0.1926699400000000
  0.4055043450000001  0.2503548050000000  0.6926699400000000
  0.9055043450000002  0.2503548050000000  0.6926699399999999
  0.4055043450000001  0.7503548050000000  0.6926699399999999
  0.9055043450000002  0.7503548050000000  0.6926699399999999
  0.2511327000000000  0.3073523500000000  0.4062597600000000
  0.7511327000000000  0.3073523500000001  0.4062597600000000
  0.2511327000000000  0.8073523500000001  0.4062597600000000
  0.7511327000000000  0.8073523500000001  0.4062597600000000
  0.2511327000000000  0.3073523500000000  0.9062597600000000
  0.7511327000000000  0.3073523500000001  0.9062597599999999
  0.2511327000000000  0.8073523499999998  0.9062597600000000
  0.7511327000000000  0.8073523499999998  0.9062597599999999
  0.2503548000000000  0.3073300900000001  0.0944956800000000
  0.7503548000000001  0.3073300900000001  0.0944956800000000
  0.2503548000000000  0.8073300900000001  0.0944956800000000
  0.7503548000000001  0.8073300900000000  0.0944956800000000
  0.2503548000000000  0.3073300900000001  0.5944956800000000
  0.7503548000000001  0.3073300900000001  0.5944956800000000
  0.2503548000000000  0.8073300900000001  0.5944956800000000
  0.7503548000000001  0.8073300900000001  0.5944956800000000
  0.3073523450000000  0.0937402650000000  0.2488673250000000
  0.8073523450000000  0.0937402650000000  0.2488673250000000
  0.3073523450000000  0.5937402650000000  0.2488673250000000
  0.8073523450000000  0.5937402650000001  0.2488673250000000
  0.3073523450000000  0.0937402650000000  0.7488673250000000
  0.8073523450000000  0.0937402650000000  0.7488673250000000
  0.3073523450000000  0.5937402650000001  0.7488673250000000
  0.8073523450000000  0.5937402650000001  0.7488673250000000
  0.3073300850000000  0.4055043500000000  0.2496447700000000
  0.8073300850000000  0.4055043500000000  0.2496447699999999
  0.3073300850000000  0.9055043499999998  0.2496447700000000
  0.8073300850000000  0.9055043500000000  0.2496447700000000
  0.3073300850000000  0.4055043500000000  0.7496447699999997
  0.8073300850000000  0.4055043500000000  0.7496447700000000
  0.3073300850000000  0.9055043500000000  0.7496447700000000
  0.8073300850000000  0.9055043500000000  0.7496447700000000
