Ba Ga Ge
 1.0000000000000000
    10.8444061900000008    0.0023161600000000   -0.0023164000000000
     0.0023164000000000   10.8444061900000008   -0.0023161600000000
    -0.0023161600000000   -0.0023164000000000   10.8444061900000008
 Ba  Ga  Ge
   8  16  30
Direct
  0.0005290500000000  0.0005290600000000  0.9994710000000000
  0.4986881500000001  0.4986881600000000  0.5013118900000000
  0.2478566500000000  0.4925183900000001  0.9918432400000001
  0.7513015199999999  0.5010524900000000  0.9985486400000000
  0.5010524800000000  0.0014505100000000  0.2486985300000000
  0.0081568100000000  0.2478566600000000  0.5074816700000000
  0.4925183800000000  0.0081568200000000  0.7521434000000000
  0.0014505000000000  0.7513015300000000  0.4989475700000000
  0.8168065799999999  0.8168065900000000  0.1831934700000000
  0.7510975800000002  0.9992678100000000  0.4985904500000000
  0.9992678000000000  0.5014096000000000  0.2489024600000000
  0.5014096000000000  0.7510975900000001  0.0007322500000000
  0.0002453300000000  0.6913790600000000  0.8801332100000000
  0.9976833300000000  0.3069987400000000  0.8761972600000000
  0.3069987400000000  0.1238028000000000  0.0023167100000000
  0.1198668400000000  0.0002453400000000  0.3086209900000000
  0.6913790500000000  0.1198668400000000  0.9997547200000000
  0.1238027900000000  0.9976833400000000  0.6930004000000000
  0.1927922700000000  0.5020912499999999  0.6237186500000000
  0.8079012900000000  0.4998735000000000  0.6194227200000000
  0.4998734900000000  0.3805773300000000  0.1920987500000000
  0.5020912400000000  0.3762814000000000  0.8072077799999998
  0.3762813900000000  0.1927922800000000  0.4979088000000000
  0.3805773300000000  0.8079012999999997  0.5001265600000000
  0.1796635000000000  0.1874841300000000  0.1861601900000000
  0.1874841200000000  0.8138398700000000  0.8203365500000001
  0.8138398600000000  0.1796635100000000  0.8125159300000000
  0.3122039200000000  0.3201735400000000  0.3139044500000000
  0.3201735300000000  0.6860965199999999  0.6877970400000000
  0.6860965100000002  0.3122039300000000  0.6798274299999999
  0.6844727700000000  0.6844727700000001  0.3155281900000000
  0.8128891600000000  0.8170198100000000  0.8177700900000000
  0.8170198000000000  0.1822299600000000  0.1871108900000000
  0.1822299500000000  0.8128891700000000  0.1829802500000000
  0.1847801900000000  0.1847801900000000  0.8152198599999998
  0.6826181900000000  0.6861768600000000  0.6830150500000000
  0.6861768500000001  0.3169859200000000  0.3173827799999999
  0.3169859100000000  0.6826181900000000  0.3138241100000000
  0.3151486300000000  0.3151486400000000  0.6848523300000000
  0.2506258100000000  0.9981745000000001  0.4985116200000000
  0.5014884200000000  0.2506258199999999  0.0018255500000000
  0.9981745000000000  0.5014884300000000  0.7493742399999997
  0.9970225200000000  0.3116865000000000  0.1150819100000000
  0.9989529900000003  0.6886706600000001  0.1137782400000000
  0.3116864900000000  0.8849181500000002  0.0029775300000000
  0.8849181400000002  0.9970225300000002  0.6883126400000000
  0.8862218100000000  0.9989529999999998  0.3113294000000000
  0.6886706500000001  0.8862218200000004  0.0010470600000000
  0.1874805300000000  0.5022654100000000  0.3852953599999999
  0.8110086900000002  0.5007096100000000  0.3853398800000000
  0.5022654000000000  0.6147047000000000  0.8125195199999999
  0.5007096000000000  0.6146601800000001  0.1889913600000000
  0.6147046900000001  0.1874805300000000  0.4977346500000000
  0.6146601700000000  0.8110087000000000  0.4992895399999999
