<?xml version="1.0" encoding="ISO-8859-1"?>
<modeling>
 <generator>
  <i name="program" type="string">vasp </i>
  <i name="version" type="string">5.4.4.18Apr17-6-g9f103f2a35  </i>
  <i name="subversion" type="string">(build Aug 16 2020 16:33:06) complex            parallel </i>
  <i name="platform" type="string">LinuxIFC </i>
  <i name="date" type="string">2026 09 25 </i>
  <i name="time" type="string">14:54:06 </i>
 </generator>
 <incar>
  <i type="string" name="PREC">accurate</i>
  <i type="logical" name="ADDGRID"> T  </i>
  <i type="int" name="IBRION">    -1</i>
  <i name="EDIFF">      0.00000001</i>
  <i name="ENCUT">    500.00000000</i>
  <i type="logical" name="LREAL"> F  </i>
  <i type="int" name="ISMEAR">     0</i>
  <i name="SIGMA">      0.05000000</i>
  <i type="logical" name="LWAVE"> F  </i>
  <i type="logical" name="LCHARG"> F  </i>
  <v type="int" name="KPOINT_BSE">    -1     0     0     0</v>
 </incar>
 <structure name="primitive_cell" >
  <crystal>
   <varray name="basis" >
    <v>       0.00000000      10.93716070      10.93716070 </v>
    <v>      10.93716070       0.00000000      10.93716070 </v>
    <v>      10.93716070      10.93716070       0.00000000 </v>
   </varray>
   <i name="volume">   2616.63878844 </i>
   <varray name="rec_basis" >
    <v>      -0.04571570       0.04571570       0.04571570 </v>
    <v>       0.04571570      -0.04571570       0.04571570 </v>
    <v>       0.04571570       0.04571570      -0.04571570 </v>
   </varray>
  </crystal>
  <varray name="positions" >
   <v>       0.06295716       0.06295716       0.06204284 </v>
   <v>       0.25000000       0.00000000       0.00000000 </v>
   <v>       0.00000000       0.25000000       0.00000000 </v>
   <v>       0.00000000       0.00000000       0.00000000 </v>
   <v>       0.00000000       0.00000000       0.25000000 </v>
   <v>       0.31250000       0.06250000       0.06250000 </v>
   <v>       0.06250000       0.31250000       0.06250000 </v>
   <v>       0.31250000       0.06250000      -0.18750000 </v>
   <v>       0.06250000       0.31250000      -0.18750000 </v>
   <v>      -0.18750000       0.31250000       0.06250000 </v>
   <v>       0.31250000      -0.18750000       0.06250000 </v>
   <v>       0.06250000       0.06250000       0.31250000 </v>
   <v>       0.06250000       0.06250000      -0.18750000 </v>
   <v>      -0.18750000       0.06250000       0.06250000 </v>
   <v>       0.06250000      -0.18750000       0.06250000 </v>
   <v>      -0.18750000       0.06250000       0.31250000 </v>
   <v>       0.06250000      -0.18750000       0.31250000 </v>
   <v>       0.25000000       0.25000000       0.00000000 </v>
   <v>       0.25000000       0.25000000      -0.25000000 </v>
   <v>       0.25000000       0.00000000       0.25000000 </v>
   <v>       0.00000000       0.25000000       0.25000000 </v>
   <v>       0.25000000       0.00000000      -0.25000000 </v>
   <v>       0.00000000       0.25000000      -0.25000000 </v>
   <v>      -0.25000000       0.25000000       0.25000000 </v>
   <v>       0.25000000      -0.25000000       0.25000000 </v>
   <v>      -0.25000000       0.25000000       0.00000000 </v>
   <v>       0.25000000      -0.25000000       0.00000000 </v>
   <v>      -0.25000000       0.00000000       0.25000000 </v>
   <v>       0.00000000      -0.25000000       0.25000000 </v>
   <v>       0.31250000       0.31250000      -0.18750000 </v>
   <v>      -0.18750000       0.31250000       0.31250000 </v>
   <v>       0.31250000      -0.18750000       0.31250000 </v>
   <v>      -0.18750000       0.31250000      -0.18750000 </v>
   <v>       0.31250000      -0.18750000      -0.18750000 </v>
   <v>      -0.18750000      -0.18750000       0.31250000 </v>
   <v>      -0.50000000       0.00000000       0.00000000 </v>
   <v>       0.00000000      -0.50000000       0.00000000 </v>
   <v>      -0.50000000       0.00000000      -0.25000000 </v>
   <v>       0.00000000      -0.50000000      -0.25000000 </v>
   <v>      -0.25000000      -0.50000000       0.00000000 </v>
   <v>      -0.50000000      -0.25000000       0.00000000 </v>
   <v>       0.00000000       0.00000000      -0.50000000 </v>
   <v>       0.00000000       0.00000000      -0.25000000 </v>
   <v>      -0.25000000       0.00000000      -0.50000000 </v>
   <v>       0.00000000      -0.25000000      -0.50000000 </v>
   <v>      -0.25000000       0.00000000       0.00000000 </v>
   <v>       0.00000000      -0.25000000       0.00000000 </v>
   <v>       0.31250000       0.31250000       0.06250000 </v>
   <v>       0.31250000       0.31250000      -0.43750000 </v>
   <v>      -0.43750000       0.06250000      -0.18750000 </v>
   <v>       0.06250000      -0.43750000      -0.18750000 </v>
   <v>      -0.18750000      -0.43750000       0.06250000 </v>
   <v>      -0.43750000      -0.18750000       0.06250000 </v>
   <v>       0.31250000       0.06250000       0.31250000 </v>
   <v>       0.06250000       0.31250000       0.31250000 </v>
   <v>       0.31250000       0.06250000      -0.43750000 </v>
   <v>       0.06250000       0.31250000      -0.43750000 </v>
   <v>      -0.18750000      -0.43750000      -0.18750000 </v>
   <v>      -0.43750000      -0.18750000      -0.18750000 </v>
   <v>      -0.43750000       0.31250000       0.06250000 </v>
   <v>       0.31250000      -0.43750000       0.06250000 </v>
   <v>      -0.43750000       0.31250000       0.31250000 </v>
   <v>       0.31250000      -0.43750000       0.31250000 </v>
   <v>      -0.18750000       0.06250000      -0.43750000 </v>
   <v>       0.06250000      -0.18750000      -0.43750000 </v>
   <v>      -0.18750000       0.06250000      -0.18750000 </v>
   <v>       0.06250000      -0.18750000      -0.18750000 </v>
   <v>      -0.18750000      -0.18750000       0.06250000 </v>
   <v>      -0.43750000       0.06250000       0.31250000 </v>
   <v>       0.06250000      -0.43750000       0.31250000 </v>
   <v>      -0.18750000      -0.18750000      -0.43750000 </v>
   <v>      -0.50000000       0.25000000      -0.25000000 </v>
   <v>       0.25000000      -0.50000000      -0.25000000 </v>
   <v>       0.25000000       0.25000000       0.25000000 </v>
   <v>       0.25000000       0.25000000      -0.50000000 </v>
   <v>      -0.25000000      -0.50000000       0.25000000 </v>
   <v>      -0.50000000      -0.25000000       0.25000000 </v>
   <v>      -0.25000000      -0.50000000      -0.25000000 </v>
   <v>      -0.50000000      -0.25000000      -0.25000000 </v>
   <v>      -0.25000000       0.25000000      -0.50000000 </v>
   <v>       0.25000000      -0.25000000      -0.50000000 </v>
   <v>      -0.25000000       0.25000000      -0.25000000 </v>
   <v>       0.25000000      -0.25000000      -0.25000000 </v>
   <v>      -0.50000000       0.25000000       0.25000000 </v>
   <v>       0.25000000      -0.50000000       0.25000000 </v>
   <v>      -0.25000000      -0.25000000      -0.50000000 </v>
   <v>      -0.25000000      -0.25000000       0.25000000 </v>
   <v>      -0.43750000       0.06250000       0.06250000 </v>
   <v>       0.06250000      -0.43750000       0.06250000 </v>
   <v>      -0.43750000       0.06250000      -0.43750000 </v>
   <v>       0.06250000      -0.43750000      -0.43750000 </v>
   <v>      -0.43750000      -0.43750000       0.06250000 </v>
   <v>       0.06250000       0.06250000      -0.43750000 </v>
   <v>      -0.50000000       0.25000000       0.00000000 </v>
   <v>       0.25000000      -0.50000000       0.00000000 </v>
   <v>      -0.50000000       0.25000000      -0.50000000 </v>
   <v>       0.25000000      -0.50000000      -0.50000000 </v>
   <v>      -0.50000000       0.00000000       0.25000000 </v>
   <v>       0.00000000      -0.50000000       0.25000000 </v>
   <v>      -0.50000000       0.00000000      -0.50000000 </v>
   <v>       0.00000000      -0.50000000      -0.50000000 </v>
   <v>       0.25000000       0.00000000      -0.50000000 </v>
   <v>       0.00000000       0.25000000      -0.50000000 </v>
   <v>      -0.50000000      -0.50000000       0.00000000 </v>
   <v>      -0.50000000      -0.50000000       0.25000000 </v>
   <v>      -0.43750000       0.31250000      -0.43750000 </v>
   <v>       0.31250000      -0.43750000      -0.43750000 </v>
   <v>      -0.43750000       0.31250000      -0.18750000 </v>
   <v>       0.31250000      -0.43750000      -0.18750000 </v>
   <v>      -0.18750000      -0.43750000       0.31250000 </v>
   <v>      -0.43750000      -0.18750000       0.31250000 </v>
   <v>      -0.18750000      -0.43750000      -0.43750000 </v>
   <v>      -0.43750000      -0.18750000      -0.43750000 </v>
   <v>      -0.43750000      -0.43750000       0.31250000 </v>
   <v>      -0.18750000       0.31250000      -0.43750000 </v>
   <v>       0.31250000      -0.18750000      -0.43750000 </v>
   <v>      -0.43750000      -0.43750000      -0.18750000 </v>
   <v>      -0.25000000       0.00000000      -0.25000000 </v>
   <v>       0.00000000      -0.25000000      -0.25000000 </v>
   <v>      -0.25000000      -0.25000000       0.00000000 </v>
   <v>      -0.25000000      -0.25000000      -0.25000000 </v>
   <v>       0.31250000       0.31250000       0.31250000 </v>
   <v>      -0.18750000      -0.18750000      -0.18750000 </v>
   <v>      -0.50000000      -0.50000000      -0.50000000 </v>
   <v>      -0.50000000      -0.50000000      -0.25000000 </v>
   <v>      -0.25000000      -0.50000000      -0.50000000 </v>
   <v>      -0.50000000      -0.25000000      -0.50000000 </v>
   <v>      -0.43750000      -0.43750000      -0.43750000 </v>
  </varray>
 </structure>
 <varray name="primitive_index" >
  <v type="int" >        1 </v>
  <v type="int" >       66 </v>
  <v type="int" >       69 </v>
  <v type="int" >       65 </v>
  <v type="int" >       81 </v>
  <v type="int" >        2 </v>
  <v type="int" >        5 </v>
  <v type="int" >       50 </v>
  <v type="int" >       53 </v>
  <v type="int" >        8 </v>
  <v type="int" >       14 </v>
  <v type="int" >       17 </v>
  <v type="int" >       49 </v>
  <v type="int" >        4 </v>
  <v type="int" >       13 </v>
  <v type="int" >       20 </v>
  <v type="int" >       29 </v>
  <v type="int" >       70 </v>
  <v type="int" >      118 </v>
  <v type="int" >       82 </v>
  <v type="int" >       85 </v>
  <v type="int" >      114 </v>
  <v type="int" >      117 </v>
  <v type="int" >       88 </v>
  <v type="int" >       94 </v>
  <v type="int" >       72 </v>
  <v type="int" >       78 </v>
  <v type="int" >       84 </v>
  <v type="int" >       93 </v>
  <v type="int" >       54 </v>
  <v type="int" >       24 </v>
  <v type="int" >       30 </v>
  <v type="int" >       56 </v>
  <v type="int" >       62 </v>
  <v type="int" >       32 </v>
  <v type="int" >       67 </v>
  <v type="int" >       73 </v>
  <v type="int" >      115 </v>
  <v type="int" >      121 </v>
  <v type="int" >       76 </v>
  <v type="int" >       79 </v>
  <v type="int" >       97 </v>
  <v type="int" >      113 </v>
  <v type="int" >      100 </v>
  <v type="int" >      109 </v>
  <v type="int" >       68 </v>
  <v type="int" >       77 </v>
  <v type="int" >        6 </v>
  <v type="int" >       38 </v>
  <v type="int" >       51 </v>
  <v type="int" >       57 </v>
  <v type="int" >       12 </v>
  <v type="int" >       15 </v>
  <v type="int" >       18 </v>
  <v type="int" >       21 </v>
  <v type="int" >       34 </v>
  <v type="int" >       37 </v>
  <v type="int" >       60 </v>
  <v type="int" >       63 </v>
  <v type="int" >        7 </v>
  <v type="int" >       10 </v>
  <v type="int" >       23 </v>
  <v type="int" >       26 </v>
  <v type="int" >       36 </v>
  <v type="int" >       45 </v>
  <v type="int" >       52 </v>
  <v type="int" >       61 </v>
  <v type="int" >       16 </v>
  <v type="int" >       19 </v>
  <v type="int" >       25 </v>
  <v type="int" >       48 </v>
  <v type="int" >      119 </v>
  <v type="int" >      122 </v>
  <v type="int" >       86 </v>
  <v type="int" >      102 </v>
  <v type="int" >       92 </v>
  <v type="int" >       95 </v>
  <v type="int" >      124 </v>
  <v type="int" >      127 </v>
  <v type="int" >      104 </v>
  <v type="int" >      110 </v>
  <v type="int" >      120 </v>
  <v type="int" >      126 </v>
  <v type="int" >       87 </v>
  <v type="int" >       90 </v>
  <v type="int" >      112 </v>
  <v type="int" >       96 </v>
  <v type="int" >        3 </v>
  <v type="int" >        9 </v>
  <v type="int" >       35 </v>
  <v type="int" >       41 </v>
  <v type="int" >       11 </v>
  <v type="int" >       33 </v>
  <v type="int" >       71 </v>
  <v type="int" >       74 </v>
  <v type="int" >      103 </v>
  <v type="int" >      106 </v>
  <v type="int" >       83 </v>
  <v type="int" >       89 </v>
  <v type="int" >       99 </v>
  <v type="int" >      105 </v>
  <v type="int" >       98 </v>
  <v type="int" >      101 </v>
  <v type="int" >       75 </v>
  <v type="int" >       91 </v>
  <v type="int" >       39 </v>
  <v type="int" >       42 </v>
  <v type="int" >       55 </v>
  <v type="int" >       58 </v>
  <v type="int" >       28 </v>
  <v type="int" >       31 </v>
  <v type="int" >       44 </v>
  <v type="int" >       47 </v>
  <v type="int" >       27 </v>
  <v type="int" >       40 </v>
  <v type="int" >       46 </v>
  <v type="int" >       59 </v>
  <v type="int" >      116 </v>
  <v type="int" >      125 </v>
  <v type="int" >       80 </v>
  <v type="int" >      128 </v>
  <v type="int" >       22 </v>
  <v type="int" >       64 </v>
  <v type="int" >      107 </v>
  <v type="int" >      123 </v>
  <v type="int" >      108 </v>
  <v type="int" >      111 </v>
  <v type="int" >       43 </v>
 </varray>
 <kpoints>
  <generation param="Gamma">
   <v type="int" name="divisions">       1        1        1 </v>
   <v name="usershift">      0.00000000       0.00000000       0.00000000 </v>
   <v name="genvec1">      1.00000000       0.00000000       0.00000000 </v>
   <v name="genvec2">      0.00000000       1.00000000       0.00000000 </v>
   <v name="genvec3">      0.00000000       0.00000000       1.00000000 </v>
   <v name="shift">      0.00000000       0.00000000       0.00000000 </v>
  </generation>
  <varray name="kpointlist" >
   <v>       0.00000000       0.00000000       0.00000000 </v>
  </varray>
  <varray name="weights" >
   <v>       1.00000000 </v>
  </varray>
 </kpoints>
 <parameters>
  <separator name="general" >
   <i type="string" name="SYSTEM">unknown system</i>
   <i type="logical" name="LCOMPAT"> F  </i>
  </separator>
  <separator name="electronic" >
   <i type="string" name="PREC">accura</i>
   <i name="ENMAX">    500.00000000</i>
   <i name="ENAUG">    322.06900000</i>
   <i name="EDIFF">      0.00000001</i>
   <i type="int" name="IALGO">    38</i>
   <i type="int" name="IWAVPR">    10</i>
   <i type="int" name="NBANDS">   322</i>
   <i name="NELECT">    512.00000000</i>
   <i type="int" name="TURBO">     0</i>
   <i type="int" name="IRESTART">     0</i>
   <i type="int" name="NREBOOT">     0</i>
   <i type="int" name="NMIN">     0</i>
   <i name="EREF">      0.00000000</i>
   <separator name="electronic smearing" >
    <i type="int" name="ISMEAR">     0</i>
    <i name="SIGMA">      0.05000000</i>
    <i name="KSPACING">      0.50000000</i>
    <i type="logical" name="KGAMMA"> T  </i>
   </separator>
   <separator name="electronic projectors" >
    <i type="logical" name="LREAL"> F  </i>
    <v name="ROPT">      0.00000000</v>
    <i type="int" name="LMAXPAW">  -100</i>
    <i type="int" name="LMAXMIX">     2</i>
    <i type="logical" name="NLSPLINE"> F  </i>
   </separator>
   <separator name="electronic startup" >
    <i type="int" name="ISTART">     0</i>
    <i type="int" name="ICHARG">     2</i>
    <i type="int" name="INIWAV">     1</i>
   </separator>
   <separator name="electronic spin" >
    <i type="int" name="ISPIN">     1</i>
    <i type="logical" name="LNONCOLLINEAR"> F  </i>
    <v name="MAGMOM">      1.00000000      1.00000000      1.00000000      1.00000000      1.00000000      1.00000000      1.00000000      1.00000000      1.00000000      1.00000000      1.00000000      1.00000000      1.00000000      1.00000000      1.00000000      1.00000000      1.00000000      1.00000000      1.00000000      1.00000000
      1.00000000      1.00000000      1.00000000      1.00000000      1.00000000      1.00000000      1.00000000      1.00000000      1.00000000      1.00000000      1.00000000      1.00000000      1.00000000      1.00000000      1.00000000      1.00000000      1.00000000      1.00000000      1.00000000      1.00000000
      1.00000000      1.00000000      1.00000000      1.00000000      1.00000000      1.00000000      1.00000000      1.00000000      1.00000000      1.00000000      1.00000000      1.00000000      1.00000000      1.00000000      1.00000000      1.00000000      1.00000000      1.00000000      1.00000000      1.00000000
      1.00000000      1.00000000      1.00000000      1.00000000      1.00000000      1.00000000      1.00000000      1.00000000      1.00000000      1.00000000      1.00000000      1.00000000      1.00000000      1.00000000      1.00000000      1.00000000      1.00000000      1.00000000      1.00000000      1.00000000
      1.00000000      1.00000000      1.00000000      1.00000000      1.00000000      1.00000000      1.00000000      1.00000000      1.00000000      1.00000000      1.00000000      1.00000000      1.00000000      1.00000000      1.00000000      1.00000000      1.00000000      1.00000000      1.00000000      1.00000000
      1.00000000      1.00000000      1.00000000      1.00000000      1.00000000      1.00000000      1.00000000      1.00000000      1.00000000      1.00000000      1.00000000      1.00000000      1.00000000      1.00000000      1.00000000      1.00000000      1.00000000      1.00000000      1.00000000      1.00000000
      1.00000000      1.00000000      1.00000000      1.00000000      1.00000000      1.00000000      1.00000000      1.00000000</v>
    <i name="NUPDOWN">     -1.00000000</i>
    <i type="logical" name="LSORBIT"> F  </i>
    <v name="SAXIS">      0.00000000      0.00000000      1.00000000</v>
    <i type="logical" name="LSPIRAL"> F  </i>
    <v name="QSPIRAL">      0.00000000      0.00000000      0.00000000</v>
    <i type="logical" name="LZEROZ"> F  </i>
   </separator>
   <separator name="electronic exchange-correlation" >
    <i type="logical" name="LASPH"> F  </i>
    <i type="logical" name="LMETAGGA"> F  </i>
   </separator>
   <separator name="electronic convergence" >
    <i type="int" name="NELM">    60</i>
    <i type="int" name="NELMDL">    -5</i>
    <i type="int" name="NELMIN">     2</i>
    <i name="ENINI">    500.00000000</i>
    <separator name="electronic convergence detail" >
     <i type="logical" name="LDIAG"> T  </i>
     <i type="logical" name="LSUBROT"> F  </i>
     <i name="WEIMIN">      0.00000000</i>
     <i name="EBREAK">      0.00000000</i>
     <i name="DEPER">      0.30000000</i>
     <i type="int" name="NRMM">     4</i>
     <i name="TIME">      0.40000000</i>
    </separator>
   </separator>
   <separator name="electronic mixer" >
    <i name="AMIX">      0.40000000</i>
    <i name="BMIX">      1.00000000</i>
    <i name="AMIN">      0.10000000</i>
    <i name="AMIX_MAG">      1.60000000</i>
    <i name="BMIX_MAG">      1.00000000</i>
    <separator name="electronic mixer details" >
     <i type="int" name="IMIX">     4</i>
     <i type="logical" name="MIXFIRST"> F  </i>
     <i type="int" name="MAXMIX">   -45</i>
     <i name="WC">    100.00000000</i>
     <i type="int" name="INIMIX">     1</i>
     <i type="int" name="MIXPRE">     1</i>
     <i type="int" name="MREMOVE">     5</i>
    </separator>
   </separator>
   <separator name="electronic dipolcorrection" >
    <i type="logical" name="LDIPOL"> F  </i>
    <i type="logical" name="LMONO"> F  </i>
    <i type="int" name="IDIPOL">     0</i>
    <i name="EPSILON">      1.00000000</i>
    <v name="DIPOL">   -100.00000000   -100.00000000   -100.00000000</v>
    <i name="EFIELD">      0.00000000</i>
   </separator>
  </separator>
  <separator name="grids" >
   <i type="int" name="NGX">   120</i>
   <i type="int" name="NGY">   120</i>
   <i type="int" name="NGZ">   120</i>
   <i type="int" name="NGXF">   240</i>
   <i type="int" name="NGYF">   240</i>
   <i type="int" name="NGZF">   240</i>
   <i type="logical" name="ADDGRID"> T  </i>
  </separator>
  <separator name="ionic" >
   <i type="int" name="NSW">     0</i>
   <i type="int" name="IBRION">    -1</i>
   <i type="int" name="MDALGO">     0</i>
   <i type="int" name="ISIF">     2</i>
   <i name="PSTRESS">      0.00000000</i>
   <i name="EDIFFG">      0.00000010</i>
   <i type="int" name="NFREE">     0</i>
   <i name="POTIM">      0.50000000</i>
   <i name="SMASS">     -3.00000000</i>
   <i name="SCALEE">      1.00000000</i>
  </separator>
  <separator name="ionic md" >
   <i name="TEBEG">      0.00010000</i>
   <i name="TEEND">      0.00010000</i>
   <i type="int" name="NBLOCK">     1</i>
   <i type="int" name="KBLOCK">     1</i>
   <i type="int" name="NPACO">   256</i>
   <i name="APACO">     16.00000000</i>
  </separator>
  <separator name="symmetry" >
   <i type="int" name="ISYM">     2</i>
   <i name="SYMPREC">      0.00001000</i>
  </separator>
  <separator name="dos" >
   <i type="int" name="LORBIT">     0</i>
   <v name="RWIGS">     -1.00000000</v>
   <i type="int" name="NEDOS">   301</i>
   <i name="EMIN">     10.00000000</i>
   <i name="EMAX">    -10.00000000</i>
   <i name="EFERMI">      0.00000000</i>
  </separator>
  <separator name="writing" >
   <i type="int" name="NWRITE">     2</i>
   <i type="logical" name="LWAVE"> F  </i>
   <i type="logical" name="LDOWNSAMPLE"> F  </i>
   <i type="logical" name="LCHARG"> F  </i>
   <i type="logical" name="LPARD"> F  </i>
   <i type="logical" name="LVTOT"> F  </i>
   <i type="logical" name="LVHAR"> F  </i>
   <i type="logical" name="LELF"> F  </i>
   <i type="logical" name="LOPTICS"> F  </i>
   <v name="STM">      0.00000000      0.00000000      0.00000000      0.00000000      0.00000000      0.00000000      0.00000000</v>
  </separator>
  <separator name="performance" >
   <i type="int" name="NPAR">     2</i>
   <i type="int" name="NSIM">     4</i>
   <i type="int" name="NBLK">    -1</i>
   <i type="logical" name="LPLANE"> T  </i>
   <i type="logical" name="LSCALAPACK"> T  </i>
   <i type="logical" name="LSCAAWARE"> F  </i>
   <i type="logical" name="LSCALU"> F  </i>
   <i type="logical" name="LASYNC"> F  </i>
   <i type="logical" name="LORBITALREAL"> F  </i>
  </separator>
  <separator name="miscellaneous" >
   <i type="int" name="IDIOT">     3</i>
   <i type="int" name="ISPECIAL">     0</i>
   <i type="logical" name="LMUSIC"> F  </i>
   <v name="POMASS">     28.08500000</v>
   <v name="DARWINR">      0.00000000</v>
   <v name="DARWINV">      1.00000000</v>
   <i type="logical" name="LCORR"> T  </i>
  </separator>
  <i type="logical" name="GGA_COMPAT"> T  </i>
  <i type="logical" name="LBERRY"> F  </i>
  <i type="int" name="ICORELEVEL">     0</i>
  <i type="logical" name="LDAU"> F  </i>
  <i type="int" name="I_CONSTRAINED_M">     0</i>
  <separator name="electronic exchange-correlation" >
   <i type="string" name="GGA">--</i>
   <i type="int" name="VOSKOWN">     0</i>
   <i type="logical" name="LHFCALC"> F  </i>
   <i type="string" name="PRECFOCK"></i>
   <i type="logical" name="LSYMGRAD"> F  </i>
   <i type="logical" name="LHFONE"> F  </i>
   <i type="logical" name="LRHFCALC"> F  </i>
   <i type="logical" name="LTHOMAS"> F  </i>
   <i type="logical" name="LMODELHF"> F  </i>
   <i name="ENCUT4O">     -1.00000000</i>
   <i type="int" name="EXXOEP">     0</i>
   <i type="int" name="FOURORBIT">     0</i>
   <i name="AEXX">      0.00000000</i>
   <i name="HFALPHA">      0.00000000</i>
   <i name="MCALPHA">      0.00000000</i>
   <i name="ALDAX">      1.00000000</i>
   <i name="AGGAX">      1.00000000</i>
   <i name="ALDAC">      1.00000000</i>
   <i name="AGGAC">      1.00000000</i>
   <i type="int" name="NKREDX">     1</i>
   <i type="int" name="NKREDY">     1</i>
   <i type="int" name="NKREDZ">     1</i>
   <i type="logical" name="SHIFTRED"> F  </i>
   <i type="logical" name="ODDONLY"> F  </i>
   <i type="logical" name="EVENONLY"> F  </i>
   <i type="int" name="LMAXFOCK">     0</i>
   <i type="int" name="NMAXFOCKAE">     0</i>
   <i type="logical" name="LFOCKAEDFT"> F  </i>
   <i name="HFSCREEN">      0.00000000</i>
   <i name="HFSCREENC">      0.00000000</i>
   <i type="int" name="NBANDSGWLOW">     0</i>
  </separator>
  <separator name="vdW DFT" >
   <i type="logical" name="LUSE_VDW"> F  </i>
   <i name="Zab_VDW">     -0.84910000</i>
   <i name="PARAM1">      0.12340000</i>
   <i name="PARAM2">      1.00000000</i>
   <i name="PARAM3">      0.00000000</i>
  </separator>
  <separator name="model GW" >
   <i type="int" name="MODEL_GW">     0</i>
   <i name="MODEL_EPS0">     12.26549432</i>
   <i name="MODEL_ALPHA">      1.00000000</i>
  </separator>
  <separator name="linear response parameters" >
   <i type="logical" name="LEPSILON"> F  </i>
   <i type="logical" name="LRPA"> F  </i>
   <i type="logical" name="LNABLA"> F  </i>
   <i type="logical" name="LVEL"> F  </i>
   <i type="int" name="KINTER">     0</i>
   <i name="CSHIFT">      0.10000000</i>
   <i name="OMEGAMAX">     -1.00000000</i>
   <i name="DEG_THRESHOLD">      0.00200000</i>
   <i name="RTIME">     -0.10000000</i>
   <i name="WPLASMAI">      0.00000000</i>
   <v name="DFIELD">      0.00000000      0.00000000      0.00000000</v>
   <v name="WPLASMA">      0.00000000      0.00000000      0.00000000      0.00000000      0.00000000      0.00000000      0.00000000      0.00000000      0.00000000</v>
  </separator>
  <separator name="orbital magnetization" >
   <i type="logical" name="NUCIND"> F  </i>
   <v name="MAGPOS">      0.00000000      0.00000000      0.00000000</v>
   <i type="logical" name="LNICSALL"> T  </i>
   <i type="logical" name="ORBITALMAG"> F  </i>
   <i type="logical" name="LMAGBLOCH"> F  </i>
   <i type="logical" name="LCHIMAG"> F  </i>
   <i type="logical" name="LGAUGE"> T  </i>
   <i type="int" name="MAGATOM">     0</i>
   <v name="MAGDIPOL">      0.00000000      0.00000000      0.00000000</v>
   <v name="AVECCONST">      0.00000000      0.00000000      0.00000000</v>
  </separator>
  <separator name="response functions" >
   <i type="logical" name="LADDER"> F  </i>
   <i type="logical" name="LRPAFORCE"> F  </i>
   <i type="logical" name="LFXC"> F  </i>
   <i type="logical" name="LHARTREE"> T  </i>
   <i type="int" name="IBSE">     0</i>
   <v type="int" name="KPOINT">    -1     0     0     0</v>
   <i type="logical" name="LTCTE"> F  </i>
   <i type="logical" name="LTETE"> F  </i>
   <i type="logical" name="LTRIPLET"> F  </i>
   <i type="logical" name="LFXCEPS"> F  </i>
   <i type="logical" name="LFXHEG"> F  </i>
   <i type="int" name="NATURALO">     2</i>
   <i type="logical" name="L2ORDER"> F  </i>
   <i type="logical" name="LMP2LT"> F  </i>
   <i type="logical" name="LUSEW"> F  </i>
   <i name="ENCUTGW">     -2.00000000</i>
   <i name="ENCUTGWSOFT">     -2.00000000</i>
   <i name="ENCUTLF">     -1.00000000</i>
   <i type="int" name="LMAXMP2">    -1</i>
   <i name="SCISSOR">      0.00000000</i>
   <i type="int" name="NOMEGA">     0</i>
   <i type="int" name="NOMEGAR">     0</i>
   <i type="int" name="NBANDSGW">    -1</i>
   <i type="int" name="NBANDSO">    -1</i>
   <i type="int" name="NBANDSV">    -1</i>
   <i type="int" name="NELM">     1</i>
   <i type="int" name="NELMHF">     1</i>
   <i type="int" name="DIM">     3</i>
   <i type="int" name="ANTIRES">     0</i>
   <i name="OMEGAMAX">    -30.00000000</i>
   <i name="OMEGAMIN">    -30.00000000</i>
   <i name="OMEGATL">   -200.00000000</i>
   <i type="int" name="OMEGAGRID">   140</i>
   <i name="CSHIFT">     -0.10000000</i>
   <i type="logical" name="SELFENERGY"> F  </i>
   <i type="logical" name="LSPECTRAL"> F  </i>
   <i type="logical" name="LSPECTRALGW"> F  </i>
   <i type="logical" name="LSINGLES"> F  </i>
   <i type="logical" name="LFERMIGW"> F  </i>
   <i type="logical" name="ODDONLYGW"> F  </i>
   <i type="logical" name="EVENONLYGW"> F  </i>
   <i type="int" name="NKREDLFX">     1</i>
   <i type="int" name="NKREDLFY">     1</i>
   <i type="int" name="NKREDLFZ">     1</i>
   <i type="int" name="MAXMEM">  2800</i>
   <i type="int" name="TELESCOPE">     0</i>
   <i type="int" name="TAUPAR">     1</i>
   <i type="int" name="OMEGAPAR">    -1</i>
   <i name="LAMBDA">      1.00000000</i>
  </separator>
  <separator name="External order field" >
   <i name="OFIELD_KAPPA">      0.00000000</i>
   <v name="OFIELD_K">      0.00000000      0.00000000      0.00000000</v>
   <i name="OFIELD_Q6_NEAR">      0.00000000</i>
   <i name="OFIELD_Q6_FAR">      0.00000000</i>
   <i name="OFIELD_A">      0.00000000</i>
  </separator>
 </parameters>
 <atominfo>
  <atoms>     128 </atoms>
  <types>       1 </types>
  <array name="atoms" >
   <dimension dim="1">ion</dimension>
   <field type="string">element</field>
   <field type="int">atomtype</field>
   <set>
    <rc><c>Si</c><c>   1</c></rc>
    <rc><c>Si</c><c>   1</c></rc>
    <rc><c>Si</c><c>   1</c></rc>
    <rc><c>Si</c><c>   1</c></rc>
    <rc><c>Si</c><c>   1</c></rc>
    <rc><c>Si</c><c>   1</c></rc>
    <rc><c>Si</c><c>   1</c></rc>
    <rc><c>Si</c><c>   1</c></rc>
    <rc><c>Si</c><c>   1</c></rc>
    <rc><c>Si</c><c>   1</c></rc>
    <rc><c>Si</c><c>   1</c></rc>
    <rc><c>Si</c><c>   1</c></rc>
    <rc><c>Si</c><c>   1</c></rc>
    <rc><c>Si</c><c>   1</c></rc>
    <rc><c>Si</c><c>   1</c></rc>
    <rc><c>Si</c><c>   1</c></rc>
    <rc><c>Si</c><c>   1</c></rc>
    <rc><c>Si</c><c>   1</c></rc>
    <rc><c>Si</c><c>   1</c></rc>
    <rc><c>Si</c><c>   1</c></rc>
    <rc><c>Si</c><c>   1</c></rc>
    <rc><c>Si</c><c>   1</c></rc>
    <rc><c>Si</c><c>   1</c></rc>
    <rc><c>Si</c><c>   1</c></rc>
    <rc><c>Si</c><c>   1</c></rc>
    <rc><c>Si</c><c>   1</c></rc>
    <rc><c>Si</c><c>   1</c></rc>
    <rc><c>Si</c><c>   1</c></rc>
    <rc><c>Si</c><c>   1</c></rc>
    <rc><c>Si</c><c>   1</c></rc>
    <rc><c>Si</c><c>   1</c></rc>
    <rc><c>Si</c><c>   1</c></rc>
    <rc><c>Si</c><c>   1</c></rc>
    <rc><c>Si</c><c>   1</c></rc>
    <rc><c>Si</c><c>   1</c></rc>
    <rc><c>Si</c><c>   1</c></rc>
    <rc><c>Si</c><c>   1</c></rc>
    <rc><c>Si</c><c>   1</c></rc>
    <rc><c>Si</c><c>   1</c></rc>
    <rc><c>Si</c><c>   1</c></rc>
    <rc><c>Si</c><c>   1</c></rc>
    <rc><c>Si</c><c>   1</c></rc>
    <rc><c>Si</c><c>   1</c></rc>
    <rc><c>Si</c><c>   1</c></rc>
    <rc><c>Si</c><c>   1</c></rc>
    <rc><c>Si</c><c>   1</c></rc>
    <rc><c>Si</c><c>   1</c></rc>
    <rc><c>Si</c><c>   1</c></rc>
    <rc><c>Si</c><c>   1</c></rc>
    <rc><c>Si</c><c>   1</c></rc>
    <rc><c>Si</c><c>   1</c></rc>
    <rc><c>Si</c><c>   1</c></rc>
    <rc><c>Si</c><c>   1</c></rc>
    <rc><c>Si</c><c>   1</c></rc>
    <rc><c>Si</c><c>   1</c></rc>
    <rc><c>Si</c><c>   1</c></rc>
    <rc><c>Si</c><c>   1</c></rc>
    <rc><c>Si</c><c>   1</c></rc>
    <rc><c>Si</c><c>   1</c></rc>
    <rc><c>Si</c><c>   1</c></rc>
    <rc><c>Si</c><c>   1</c></rc>
    <rc><c>Si</c><c>   1</c></rc>
    <rc><c>Si</c><c>   1</c></rc>
    <rc><c>Si</c><c>   1</c></rc>
    <rc><c>Si</c><c>   1</c></rc>
    <rc><c>Si</c><c>   1</c></rc>
    <rc><c>Si</c><c>   1</c></rc>
    <rc><c>Si</c><c>   1</c></rc>
    <rc><c>Si</c><c>   1</c></rc>
    <rc><c>Si</c><c>   1</c></rc>
    <rc><c>Si</c><c>   1</c></rc>
    <rc><c>Si</c><c>   1</c></rc>
    <rc><c>Si</c><c>   1</c></rc>
    <rc><c>Si</c><c>   1</c></rc>
    <rc><c>Si</c><c>   1</c></rc>
    <rc><c>Si</c><c>   1</c></rc>
    <rc><c>Si</c><c>   1</c></rc>
    <rc><c>Si</c><c>   1</c></rc>
    <rc><c>Si</c><c>   1</c></rc>
    <rc><c>Si</c><c>   1</c></rc>
    <rc><c>Si</c><c>   1</c></rc>
    <rc><c>Si</c><c>   1</c></rc>
    <rc><c>Si</c><c>   1</c></rc>
    <rc><c>Si</c><c>   1</c></rc>
    <rc><c>Si</c><c>   1</c></rc>
    <rc><c>Si</c><c>   1</c></rc>
    <rc><c>Si</c><c>   1</c></rc>
    <rc><c>Si</c><c>   1</c></rc>
    <rc><c>Si</c><c>   1</c></rc>
    <rc><c>Si</c><c>   1</c></rc>
    <rc><c>Si</c><c>   1</c></rc>
    <rc><c>Si</c><c>   1</c></rc>
    <rc><c>Si</c><c>   1</c></rc>
    <rc><c>Si</c><c>   1</c></rc>
    <rc><c>Si</c><c>   1</c></rc>
    <rc><c>Si</c><c>   1</c></rc>
    <rc><c>Si</c><c>   1</c></rc>
    <rc><c>Si</c><c>   1</c></rc>
    <rc><c>Si</c><c>   1</c></rc>
    <rc><c>Si</c><c>   1</c></rc>
    <rc><c>Si</c><c>   1</c></rc>
    <rc><c>Si</c><c>   1</c></rc>
    <rc><c>Si</c><c>   1</c></rc>
    <rc><c>Si</c><c>   1</c></rc>
    <rc><c>Si</c><c>   1</c></rc>
    <rc><c>Si</c><c>   1</c></rc>
    <rc><c>Si</c><c>   1</c></rc>
    <rc><c>Si</c><c>   1</c></rc>
    <rc><c>Si</c><c>   1</c></rc>
    <rc><c>Si</c><c>   1</c></rc>
    <rc><c>Si</c><c>   1</c></rc>
    <rc><c>Si</c><c>   1</c></rc>
    <rc><c>Si</c><c>   1</c></rc>
    <rc><c>Si</c><c>   1</c></rc>
    <rc><c>Si</c><c>   1</c></rc>
    <rc><c>Si</c><c>   1</c></rc>
    <rc><c>Si</c><c>   1</c></rc>
    <rc><c>Si</c><c>   1</c></rc>
    <rc><c>Si</c><c>   1</c></rc>
    <rc><c>Si</c><c>   1</c></rc>
    <rc><c>Si</c><c>   1</c></rc>
    <rc><c>Si</c><c>   1</c></rc>
    <rc><c>Si</c><c>   1</c></rc>
    <rc><c>Si</c><c>   1</c></rc>
    <rc><c>Si</c><c>   1</c></rc>
    <rc><c>Si</c><c>   1</c></rc>
    <rc><c>Si</c><c>   1</c></rc>
    <rc><c>Si</c><c>   1</c></rc>
   </set>
  </array>
  <array name="atomtypes" >
   <dimension dim="1">type</dimension>
   <field type="int">atomspertype</field>
   <field type="string">element</field>
   <field>mass</field>
   <field>valence</field>
   <field type="string">pseudopotential</field>
   <set>
    <rc><c> 128</c><c>Si</c><c>     28.08500000</c><c>      4.00000000</c><c> PAW_PBE Si 05Jan2001                   </c></rc>
   </set>
  </array>
 </atominfo>
 <structure name="initialpos" >
  <crystal>
   <varray name="basis" >
    <v>       0.00000000      10.93716070      10.93716070 </v>
    <v>      10.93716070       0.00000000      10.93716070 </v>
    <v>      10.93716070      10.93716070       0.00000000 </v>
   </varray>
   <i name="volume">   2616.63878844 </i>
   <varray name="rec_basis" >
    <v>      -0.04571570       0.04571570       0.04571570 </v>
    <v>       0.04571570      -0.04571570       0.04571570 </v>
    <v>       0.04571570       0.04571570      -0.04571570 </v>
   </varray>
  </crystal>
  <varray name="positions" >
   <v>       0.06295716       0.06295716       0.06204284 </v>
   <v>       0.31250000       0.06250000       0.06250000 </v>
   <v>       0.56250000       0.06250000       0.06250000 </v>
   <v>       0.81250000       0.06250000       0.06250000 </v>
   <v>       0.06250000       0.31250000       0.06250000 </v>
   <v>       0.31250000       0.31250000       0.06250000 </v>
   <v>       0.56250000       0.31250000       0.06250000 </v>
   <v>       0.81250000       0.31250000       0.06250000 </v>
   <v>       0.06250000       0.56250000       0.06250000 </v>
   <v>       0.31250000       0.56250000       0.06250000 </v>
   <v>       0.56250000       0.56250000       0.06250000 </v>
   <v>       0.81250000       0.56250000       0.06250000 </v>
   <v>       0.06250000       0.81250000       0.06250000 </v>
   <v>       0.31250000       0.81250000       0.06250000 </v>
   <v>       0.56250000       0.81250000       0.06250000 </v>
   <v>       0.81250000       0.81250000       0.06250000 </v>
   <v>       0.06250000       0.06250000       0.31250000 </v>
   <v>       0.31250000       0.06250000       0.31250000 </v>
   <v>       0.56250000       0.06250000       0.31250000 </v>
   <v>       0.81250000       0.06250000       0.31250000 </v>
   <v>       0.06250000       0.31250000       0.31250000 </v>
   <v>       0.31250000       0.31250000       0.31250000 </v>
   <v>       0.56250000       0.31250000       0.31250000 </v>
   <v>       0.81250000       0.31250000       0.31250000 </v>
   <v>       0.06250000       0.56250000       0.31250000 </v>
   <v>       0.31250000       0.56250000       0.31250000 </v>
   <v>       0.56250000       0.56250000       0.31250000 </v>
   <v>       0.81250000       0.56250000       0.31250000 </v>
   <v>       0.06250000       0.81250000       0.31250000 </v>
   <v>       0.31250000       0.81250000       0.31250000 </v>
   <v>       0.56250000       0.81250000       0.31250000 </v>
   <v>       0.81250000       0.81250000       0.31250000 </v>
   <v>       0.06250000       0.06250000       0.56250000 </v>
   <v>       0.31250000       0.06250000       0.56250000 </v>
   <v>       0.56250000       0.06250000       0.56250000 </v>
   <v>       0.81250000       0.06250000       0.56250000 </v>
   <v>       0.06250000       0.31250000       0.56250000 </v>
   <v>       0.31250000       0.31250000       0.56250000 </v>
   <v>       0.56250000       0.31250000       0.56250000 </v>
   <v>       0.81250000       0.31250000       0.56250000 </v>
   <v>       0.06250000       0.56250000       0.56250000 </v>
   <v>       0.31250000       0.56250000       0.56250000 </v>
   <v>       0.56250000       0.56250000       0.56250000 </v>
   <v>       0.81250000       0.56250000       0.56250000 </v>
   <v>       0.06250000       0.81250000       0.56250000 </v>
   <v>       0.31250000       0.81250000       0.56250000 </v>
   <v>       0.56250000       0.81250000       0.56250000 </v>
   <v>       0.81250000       0.81250000       0.56250000 </v>
   <v>       0.06250000       0.06250000       0.81250000 </v>
   <v>       0.31250000       0.06250000       0.81250000 </v>
   <v>       0.56250000       0.06250000       0.81250000 </v>
   <v>       0.81250000       0.06250000       0.81250000 </v>
   <v>       0.06250000       0.31250000       0.81250000 </v>
   <v>       0.31250000       0.31250000       0.81250000 </v>
   <v>       0.56250000       0.31250000       0.81250000 </v>
   <v>       0.81250000       0.31250000       0.81250000 </v>
   <v>       0.06250000       0.56250000       0.81250000 </v>
   <v>       0.31250000       0.56250000       0.81250000 </v>
   <v>       0.56250000       0.56250000       0.81250000 </v>
   <v>       0.81250000       0.56250000       0.81250000 </v>
   <v>       0.06250000       0.81250000       0.81250000 </v>
   <v>       0.31250000       0.81250000       0.81250000 </v>
   <v>       0.56250000       0.81250000       0.81250000 </v>
   <v>       0.81250000       0.81250000       0.81250000 </v>
   <v>       0.00000000       0.00000000       0.00000000 </v>
   <v>       0.25000000       0.00000000       0.00000000 </v>
   <v>       0.50000000       0.00000000       0.00000000 </v>
   <v>       0.75000000       0.00000000       0.00000000 </v>
   <v>       0.00000000       0.25000000       0.00000000 </v>
   <v>       0.25000000       0.25000000       0.00000000 </v>
   <v>       0.50000000       0.25000000       0.00000000 </v>
   <v>       0.75000000       0.25000000       0.00000000 </v>
   <v>       0.00000000       0.50000000       0.00000000 </v>
   <v>       0.25000000       0.50000000       0.00000000 </v>
   <v>       0.50000000       0.50000000       0.00000000 </v>
   <v>       0.75000000       0.50000000       0.00000000 </v>
   <v>       0.00000000       0.75000000       0.00000000 </v>
   <v>       0.25000000       0.75000000       0.00000000 </v>
   <v>       0.50000000       0.75000000       0.00000000 </v>
   <v>       0.75000000       0.75000000       0.00000000 </v>
   <v>       0.00000000       0.00000000       0.25000000 </v>
   <v>       0.25000000       0.00000000       0.25000000 </v>
   <v>       0.50000000       0.00000000       0.25000000 </v>
   <v>       0.75000000       0.00000000       0.25000000 </v>
   <v>       0.00000000       0.25000000       0.25000000 </v>
   <v>       0.25000000       0.25000000       0.25000000 </v>
   <v>       0.50000000       0.25000000       0.25000000 </v>
   <v>       0.75000000       0.25000000       0.25000000 </v>
   <v>       0.00000000       0.50000000       0.25000000 </v>
   <v>       0.25000000       0.50000000       0.25000000 </v>
   <v>       0.50000000       0.50000000       0.25000000 </v>
   <v>       0.75000000       0.50000000       0.25000000 </v>
   <v>       0.00000000       0.75000000       0.25000000 </v>
   <v>       0.25000000       0.75000000       0.25000000 </v>
   <v>       0.50000000       0.75000000       0.25000000 </v>
   <v>       0.75000000       0.75000000       0.25000000 </v>
   <v>       0.00000000       0.00000000       0.50000000 </v>
   <v>       0.25000000       0.00000000       0.50000000 </v>
   <v>       0.50000000       0.00000000       0.50000000 </v>
   <v>       0.75000000       0.00000000       0.50000000 </v>
   <v>       0.00000000       0.25000000       0.50000000 </v>
   <v>       0.25000000       0.25000000       0.50000000 </v>
   <v>       0.50000000       0.25000000       0.50000000 </v>
   <v>       0.75000000       0.25000000       0.50000000 </v>
   <v>       0.00000000       0.50000000       0.50000000 </v>
   <v>       0.25000000       0.50000000       0.50000000 </v>
   <v>       0.50000000       0.50000000       0.50000000 </v>
   <v>       0.75000000       0.50000000       0.50000000 </v>
   <v>       0.00000000       0.75000000       0.50000000 </v>
   <v>       0.25000000       0.75000000       0.50000000 </v>
   <v>       0.50000000       0.75000000       0.50000000 </v>
   <v>       0.75000000       0.75000000       0.50000000 </v>
   <v>       0.00000000       0.00000000       0.75000000 </v>
   <v>       0.25000000       0.00000000       0.75000000 </v>
   <v>       0.50000000       0.00000000       0.75000000 </v>
   <v>       0.75000000       0.00000000       0.75000000 </v>
   <v>       0.00000000       0.25000000       0.75000000 </v>
   <v>       0.25000000       0.25000000       0.75000000 </v>
   <v>       0.50000000       0.25000000       0.75000000 </v>
   <v>       0.75000000       0.25000000       0.75000000 </v>
   <v>       0.00000000       0.50000000       0.75000000 </v>
   <v>       0.25000000       0.50000000       0.75000000 </v>
   <v>       0.50000000       0.50000000       0.75000000 </v>
   <v>       0.75000000       0.50000000       0.75000000 </v>
   <v>       0.00000000       0.75000000       0.75000000 </v>
   <v>       0.25000000       0.75000000       0.75000000 </v>
   <v>       0.50000000       0.75000000       0.75000000 </v>
   <v>       0.75000000       0.75000000       0.75000000 </v>
  </varray>
 </structure>
 <calculation>
  <scstep>
   <time name="dav">    4.76    4.77</time>
   <time name="total">    5.27    5.29</time>
   <energy>
    <i name="alphaZ">    210.78028765 </i>
    <i name="ewald"> -14524.86756189 </i>
    <i name="hartreedc">   -724.61925007 </i>
    <i name="XCdc">  -1195.83150722 </i>
    <i name="pawpsdc">   4221.13331941 </i>
    <i name="pawaedc">  -1969.18571412 </i>
    <i name="eentropy">     -0.01584672 </i>
    <i name="bandstr">   2165.00758639 </i>
    <i name="atom">  13192.48085998 </i>
    <i name="e_fr_energy">   1374.88217342 </i>
    <i name="e_wo_entrp">   1374.89802013 </i>
    <i name="e_0_energy">   1374.89009677 </i>
   </energy>
  </scstep>
  <scstep>
   <time name="dav">    5.40    5.41</time>
   <time name="total">    5.40    5.41</time>
   <energy>
    <i name="e_fr_energy">   -537.02330854 </i>
    <i name="e_wo_entrp">   -537.02330671 </i>
    <i name="e_0_energy">   -537.02330763 </i>
   </energy>
  </scstep>
  <scstep>
   <time name="dav">    5.43    5.45</time>
   <time name="total">    5.43    5.45</time>
   <energy>
    <i name="e_fr_energy">   -690.02435109 </i>
    <i name="e_wo_entrp">   -690.02435109 </i>
    <i name="e_0_energy">   -690.02435109 </i>
   </energy>
  </scstep>
  <scstep>
   <time name="dav">    5.35    5.36</time>
   <time name="total">    5.35    5.36</time>
   <energy>
    <i name="e_fr_energy">   -694.53383947 </i>
    <i name="e_wo_entrp">   -694.53383947 </i>
    <i name="e_0_energy">   -694.53383947 </i>
   </energy>
  </scstep>
  <scstep>
   <time name="dav">    5.32    5.33</time>
   <time name="total">    5.97    5.98</time>
   <energy>
    <i name="e_fr_energy">   -694.69941858 </i>
    <i name="e_wo_entrp">   -694.69941858 </i>
    <i name="e_0_energy">   -694.69941858 </i>
   </energy>
  </scstep>
  <scstep>
   <time name="dav">    5.08    5.10</time>
   <time name="total">    6.22    6.24</time>
   <energy>
    <i name="e_fr_energy">   -686.30046903 </i>
    <i name="e_wo_entrp">   -686.30046903 </i>
    <i name="e_0_energy">   -686.30046903 </i>
   </energy>
  </scstep>
  <scstep>
   <time name="dav">    4.92    4.93</time>
   <time name="total">    6.05    6.07</time>
   <energy>
    <i name="e_fr_energy">   -682.42763194 </i>
    <i name="e_wo_entrp">   -682.42763194 </i>
    <i name="e_0_energy">   -682.42763194 </i>
   </energy>
  </scstep>
  <scstep>
   <time name="dav">    5.02    5.03</time>
   <time name="total">    6.16    6.18</time>
   <energy>
    <i name="e_fr_energy">   -682.55971607 </i>
    <i name="e_wo_entrp">   -682.55971607 </i>
    <i name="e_0_energy">   -682.55971607 </i>
   </energy>
  </scstep>
  <scstep>
   <time name="dav">    5.57    5.59</time>
   <time name="total">    6.71    6.73</time>
   <energy>
    <i name="e_fr_energy">   -682.56615644 </i>
    <i name="e_wo_entrp">   -682.56615644 </i>
    <i name="e_0_energy">   -682.56615644 </i>
   </energy>
  </scstep>
  <scstep>
   <time name="dav">    4.96    4.97</time>
   <time name="total">    6.09    6.11</time>
   <energy>
    <i name="e_fr_energy">   -682.56883381 </i>
    <i name="e_wo_entrp">   -682.56883381 </i>
    <i name="e_0_energy">   -682.56883381 </i>
   </energy>
  </scstep>
  <scstep>
   <time name="dav">    5.35    5.36</time>
   <time name="total">    6.48    6.50</time>
   <energy>
    <i name="e_fr_energy">   -682.56884704 </i>
    <i name="e_wo_entrp">   -682.56884704 </i>
    <i name="e_0_energy">   -682.56884704 </i>
   </energy>
  </scstep>
  <scstep>
   <time name="dav">    5.39    5.40</time>
   <time name="total">    6.53    6.55</time>
   <energy>
    <i name="e_fr_energy">   -682.56885311 </i>
    <i name="e_wo_entrp">   -682.56885311 </i>
    <i name="e_0_energy">   -682.56885311 </i>
   </energy>
  </scstep>
  <scstep>
   <time name="dav">    5.27    5.29</time>
   <time name="total">    6.41    6.43</time>
   <energy>
    <i name="e_fr_energy">   -682.56884827 </i>
    <i name="e_wo_entrp">   -682.56884827 </i>
    <i name="e_0_energy">   -682.56884827 </i>
   </energy>
  </scstep>
  <scstep>
   <time name="dav">    5.19    5.21</time>
   <time name="total">    6.34    6.35</time>
   <energy>
    <i name="e_fr_energy">   -682.56884883 </i>
    <i name="e_wo_entrp">   -682.56884883 </i>
    <i name="e_0_energy">   -682.56884883 </i>
   </energy>
  </scstep>
  <scstep>
   <time name="dav">    3.60    3.61</time>
   <time name="total">    4.76    4.78</time>
   <energy>
    <i name="e_fr_energy">   -682.56884793 </i>
    <i name="e_wo_entrp">   -682.56884793 </i>
    <i name="e_0_energy">   -682.56884793 </i>
   </energy>
  </scstep>
  <scstep>
   <time name="dav">    3.33    3.33</time>
   <time name="total">    4.50    4.51</time>
   <energy>
    <i name="e_fr_energy">   -682.56884800 </i>
    <i name="e_wo_entrp">   -682.56884800 </i>
    <i name="e_0_energy">   -682.56884800 </i>
   </energy>
  </scstep>
  <scstep>
   <time name="dav">    3.32    3.33</time>
   <time name="total">    4.46    4.47</time>
   <energy>
    <i name="e_fr_energy">   -682.56884804 </i>
    <i name="e_wo_entrp">   -682.56884804 </i>
    <i name="e_0_energy">   -682.56884804 </i>
   </energy>
  </scstep>
  <scstep>
   <time name="dav">    3.20    3.21</time>
   <time name="total">    4.34    4.35</time>
   <energy>
    <i name="e_fr_energy">   -682.56884802 </i>
    <i name="e_wo_entrp">   -682.56884802 </i>
    <i name="e_0_energy">   -682.56884802 </i>
   </energy>
  </scstep>
  <scstep>
   <time name="dav">    3.20    3.21</time>
   <time name="total">    3.69    3.70</time>
   <energy>
    <i name="alphaZ">    210.78028765 </i>
    <i name="ewald"> -14524.86756189 </i>
    <i name="hartreedc">   -991.73199868 </i>
    <i name="XCdc">  -1153.28599279 </i>
    <i name="pawpsdc">   4723.40672670 </i>
    <i name="pawaedc">  -2485.14482750 </i>
    <i name="eentropy">     -0.00000000 </i>
    <i name="bandstr">    345.79365852 </i>
    <i name="atom">  13192.48085998 </i>
    <i name="e_fr_energy">   -682.56884802 </i>
    <i name="e_wo_entrp">   -682.56884802 </i>
    <i name="e_0_energy">   -682.56884802 </i>
   </energy>
  </scstep>
  <structure>
   <crystal>
    <varray name="basis" >
     <v>       0.00000000      10.93716070      10.93716070 </v>
     <v>      10.93716070       0.00000000      10.93716070 </v>
     <v>      10.93716070      10.93716070       0.00000000 </v>
    </varray>
    <i name="volume">   2616.63878844 </i>
    <varray name="rec_basis" >
     <v>      -0.04571570       0.04571570       0.04571570 </v>
     <v>       0.04571570      -0.04571570       0.04571570 </v>
     <v>       0.04571570       0.04571570      -0.04571570 </v>
    </varray>
   </crystal>
   <varray name="positions" >
    <v>       0.06295716       0.06295716       0.06204284 </v>
    <v>       0.31250000       0.06250000       0.06250000 </v>
    <v>       0.56250000       0.06250000       0.06250000 </v>
    <v>       0.81250000       0.06250000       0.06250000 </v>
    <v>       0.06250000       0.31250000       0.06250000 </v>
    <v>       0.31250000       0.31250000       0.06250000 </v>
    <v>       0.56250000       0.31250000       0.06250000 </v>
    <v>       0.81250000       0.31250000       0.06250000 </v>
    <v>       0.06250000       0.56250000       0.06250000 </v>
    <v>       0.31250000       0.56250000       0.06250000 </v>
    <v>       0.56250000       0.56250000       0.06250000 </v>
    <v>       0.81250000       0.56250000       0.06250000 </v>
    <v>       0.06250000       0.81250000       0.06250000 </v>
    <v>       0.31250000       0.81250000       0.06250000 </v>
    <v>       0.56250000       0.81250000       0.06250000 </v>
    <v>       0.81250000       0.81250000       0.06250000 </v>
    <v>       0.06250000       0.06250000       0.31250000 </v>
    <v>       0.31250000       0.06250000       0.31250000 </v>
    <v>       0.56250000       0.06250000       0.31250000 </v>
    <v>       0.81250000       0.06250000       0.31250000 </v>
    <v>       0.06250000       0.31250000       0.31250000 </v>
    <v>       0.31250000       0.31250000       0.31250000 </v>
    <v>       0.56250000       0.31250000       0.31250000 </v>
    <v>       0.81250000       0.31250000       0.31250000 </v>
    <v>       0.06250000       0.56250000       0.31250000 </v>
    <v>       0.31250000       0.56250000       0.31250000 </v>
    <v>       0.56250000       0.56250000       0.31250000 </v>
    <v>       0.81250000       0.56250000       0.31250000 </v>
    <v>       0.06250000       0.81250000       0.31250000 </v>
    <v>       0.31250000       0.81250000       0.31250000 </v>
    <v>       0.56250000       0.81250000       0.31250000 </v>
    <v>       0.81250000       0.81250000       0.31250000 </v>
    <v>       0.06250000       0.06250000       0.56250000 </v>
    <v>       0.31250000       0.06250000       0.56250000 </v>
    <v>       0.56250000       0.06250000       0.56250000 </v>
    <v>       0.81250000       0.06250000       0.56250000 </v>
    <v>       0.06250000       0.31250000       0.56250000 </v>
    <v>       0.31250000       0.31250000       0.56250000 </v>
    <v>       0.56250000       0.31250000       0.56250000 </v>
    <v>       0.81250000       0.31250000       0.56250000 </v>
    <v>       0.06250000       0.56250000       0.56250000 </v>
    <v>       0.31250000       0.56250000       0.56250000 </v>
    <v>       0.56250000       0.56250000       0.56250000 </v>
    <v>       0.81250000       0.56250000       0.56250000 </v>
    <v>       0.06250000       0.81250000       0.56250000 </v>
    <v>       0.31250000       0.81250000       0.56250000 </v>
    <v>       0.56250000       0.81250000       0.56250000 </v>
    <v>       0.81250000       0.81250000       0.56250000 </v>
    <v>       0.06250000       0.06250000       0.81250000 </v>
    <v>       0.31250000       0.06250000       0.81250000 </v>
    <v>       0.56250000       0.06250000       0.81250000 </v>
    <v>       0.81250000       0.06250000       0.81250000 </v>
    <v>       0.06250000       0.31250000       0.81250000 </v>
    <v>       0.31250000       0.31250000       0.81250000 </v>
    <v>       0.56250000       0.31250000       0.81250000 </v>
    <v>       0.81250000       0.31250000       0.81250000 </v>
    <v>       0.06250000       0.56250000       0.81250000 </v>
    <v>       0.31250000       0.56250000       0.81250000 </v>
    <v>       0.56250000       0.56250000       0.81250000 </v>
    <v>       0.81250000       0.56250000       0.81250000 </v>
    <v>       0.06250000       0.81250000       0.81250000 </v>
    <v>       0.31250000       0.81250000       0.81250000 </v>
    <v>       0.56250000       0.81250000       0.81250000 </v>
    <v>       0.81250000       0.81250000       0.81250000 </v>
    <v>       0.00000000       0.00000000       0.00000000 </v>
    <v>       0.25000000       0.00000000       0.00000000 </v>
    <v>       0.50000000       0.00000000       0.00000000 </v>
    <v>       0.75000000       0.00000000       0.00000000 </v>
    <v>       0.00000000       0.25000000       0.00000000 </v>
    <v>       0.25000000       0.25000000       0.00000000 </v>
    <v>       0.50000000       0.25000000       0.00000000 </v>
    <v>       0.75000000       0.25000000       0.00000000 </v>
    <v>       0.00000000       0.50000000       0.00000000 </v>
    <v>       0.25000000       0.50000000       0.00000000 </v>
    <v>       0.50000000       0.50000000       0.00000000 </v>
    <v>       0.75000000       0.50000000       0.00000000 </v>
    <v>       0.00000000       0.75000000       0.00000000 </v>
    <v>       0.25000000       0.75000000       0.00000000 </v>
    <v>       0.50000000       0.75000000       0.00000000 </v>
    <v>       0.75000000       0.75000000       0.00000000 </v>
    <v>       0.00000000       0.00000000       0.25000000 </v>
    <v>       0.25000000       0.00000000       0.25000000 </v>
    <v>       0.50000000       0.00000000       0.25000000 </v>
    <v>       0.75000000       0.00000000       0.25000000 </v>
    <v>       0.00000000       0.25000000       0.25000000 </v>
    <v>       0.25000000       0.25000000       0.25000000 </v>
    <v>       0.50000000       0.25000000       0.25000000 </v>
    <v>       0.75000000       0.25000000       0.25000000 </v>
    <v>       0.00000000       0.50000000       0.25000000 </v>
    <v>       0.25000000       0.50000000       0.25000000 </v>
    <v>       0.50000000       0.50000000       0.25000000 </v>
    <v>       0.75000000       0.50000000       0.25000000 </v>
    <v>       0.00000000       0.75000000       0.25000000 </v>
    <v>       0.25000000       0.75000000       0.25000000 </v>
    <v>       0.50000000       0.75000000       0.25000000 </v>
    <v>       0.75000000       0.75000000       0.25000000 </v>
    <v>       0.00000000       0.00000000       0.50000000 </v>
    <v>       0.25000000       0.00000000       0.50000000 </v>
    <v>       0.50000000       0.00000000       0.50000000 </v>
    <v>       0.75000000       0.00000000       0.50000000 </v>
    <v>       0.00000000       0.25000000       0.50000000 </v>
    <v>       0.25000000       0.25000000       0.50000000 </v>
    <v>       0.50000000       0.25000000       0.50000000 </v>
    <v>       0.75000000       0.25000000       0.50000000 </v>
    <v>       0.00000000       0.50000000       0.50000000 </v>
    <v>       0.25000000       0.50000000       0.50000000 </v>
    <v>       0.50000000       0.50000000       0.50000000 </v>
    <v>       0.75000000       0.50000000       0.50000000 </v>
    <v>       0.00000000       0.75000000       0.50000000 </v>
    <v>       0.25000000       0.75000000       0.50000000 </v>
    <v>       0.50000000       0.75000000       0.50000000 </v>
    <v>       0.75000000       0.75000000       0.50000000 </v>
    <v>       0.00000000       0.00000000       0.75000000 </v>
    <v>       0.25000000       0.00000000       0.75000000 </v>
    <v>       0.50000000       0.00000000       0.75000000 </v>
    <v>       0.75000000       0.00000000       0.75000000 </v>
    <v>       0.00000000       0.25000000       0.75000000 </v>
    <v>       0.25000000       0.25000000       0.75000000 </v>
    <v>       0.50000000       0.25000000       0.75000000 </v>
    <v>       0.75000000       0.25000000       0.75000000 </v>
    <v>       0.00000000       0.50000000       0.75000000 </v>
    <v>       0.25000000       0.50000000       0.75000000 </v>
    <v>       0.50000000       0.50000000       0.75000000 </v>
    <v>       0.75000000       0.50000000       0.75000000 </v>
    <v>       0.00000000       0.75000000       0.75000000 </v>
    <v>       0.25000000       0.75000000       0.75000000 </v>
    <v>       0.50000000       0.75000000       0.75000000 </v>
    <v>       0.75000000       0.75000000       0.75000000 </v>
   </varray>
  </structure>
  <varray name="forces" >
   <v>       0.00000000       0.00000000      -0.13030843 </v>
   <v>      -0.00096174       0.00203410       0.00158505 </v>
   <v>      -0.00000121       0.00037071       0.00014195 </v>
   <v>       0.00095101       0.00201798       0.00157123 </v>
   <v>       0.00203410      -0.00096174       0.00158505 </v>
   <v>       0.00020828       0.00020828       0.00004682 </v>
   <v>       0.00027209       0.00014988       0.00010429 </v>
   <v>      -0.00096465       0.00096465      -0.00492032 </v>
   <v>       0.00037071      -0.00000121       0.00014195 </v>
   <v>       0.00014988       0.00027209       0.00010429 </v>
   <v>       0.00000000       0.00000000      -0.00167934 </v>
   <v>       0.00020775       0.00027153       0.00010402 </v>
   <v>       0.00201798       0.00095101       0.00157123 </v>
   <v>       0.00096465      -0.00096465      -0.00492032 </v>
   <v>       0.00027153       0.00020775       0.00010402 </v>
   <v>       0.00014971       0.00014971       0.00004774 </v>
   <v>       0.00094785       0.00094785      -0.00491477 </v>
   <v>      -0.00027000       0.00014930       0.00010403 </v>
   <v>      -0.00020833       0.00020833       0.00004622 </v>
   <v>      -0.00201798      -0.00095101       0.00157123 </v>
   <v>       0.00014930      -0.00027000       0.00010403 </v>
   <v>       0.00000000       0.00000000       0.00010384 </v>
   <v>      -0.00014988      -0.00027209       0.00010429 </v>
   <v>       0.00000034       0.00000000       0.00025194 </v>
   <v>       0.00020833      -0.00020833       0.00004622 </v>
   <v>      -0.00027209      -0.00014988       0.00010429 </v>
   <v>       0.00001237       0.00001237       0.00012658 </v>
   <v>       0.00000169      -0.00001222       0.00009398 </v>
   <v>      -0.00095101      -0.00201798       0.00157123 </v>
   <v>       0.00000000       0.00000034       0.00025194 </v>
   <v>      -0.00001222       0.00000169       0.00009398 </v>
   <v>       0.00000000       0.00000000       0.00016556 </v>
   <v>       0.00000000       0.00000000      -0.00166968 </v>
   <v>      -0.00014930       0.00027000       0.00010403 </v>
   <v>      -0.00037071       0.00000121       0.00014195 </v>
   <v>      -0.00020884       0.00027053       0.00010423 </v>
   <v>       0.00027000      -0.00014930       0.00010403 </v>
   <v>      -0.00020828      -0.00020828       0.00004682 </v>
   <v>      -0.00000116      -0.00001238       0.00009439 </v>
   <v>      -0.00001231       0.00001231       0.00012638 </v>
   <v>       0.00000121      -0.00037071       0.00014195 </v>
   <v>      -0.00001238      -0.00000116       0.00009439 </v>
   <v>       0.00000000       0.00000000       0.00011305 </v>
   <v>       0.00001222      -0.00000169       0.00009398 </v>
   <v>       0.00027053      -0.00020884       0.00010423 </v>
   <v>       0.00001231      -0.00001231       0.00012638 </v>
   <v>      -0.00000169       0.00001222       0.00009398 </v>
   <v>      -0.00014971      -0.00014971       0.00004774 </v>
   <v>      -0.00094785      -0.00094785      -0.00491477 </v>
   <v>      -0.00203410       0.00096174       0.00158505 </v>
   <v>      -0.00014950       0.00014950       0.00004518 </v>
   <v>      -0.00027053       0.00020884       0.00010423 </v>
   <v>       0.00096174      -0.00203410       0.00158505 </v>
   <v>       0.00000000      -0.00000000       0.00016691 </v>
   <v>       0.00001238       0.00000116       0.00009439 </v>
   <v>      -0.00000000      -0.00000034       0.00025194 </v>
   <v>       0.00014950      -0.00014950       0.00004518 </v>
   <v>       0.00000116       0.00001238       0.00009439 </v>
   <v>      -0.00001237      -0.00001237       0.00012658 </v>
   <v>      -0.00027153      -0.00020775       0.00010402 </v>
   <v>       0.00020884      -0.00027053       0.00010423 </v>
   <v>      -0.00000034      -0.00000000       0.00025194 </v>
   <v>      -0.00020775      -0.00027153       0.00010402 </v>
   <v>       0.00000000       0.00000000       0.00010383 </v>
   <v>       0.01994899       0.01994899       0.03256102 </v>
   <v>      -0.02052078       0.02052078       0.03285835 </v>
   <v>       0.00047428       0.00019765       0.00020990 </v>
   <v>      -0.00047350       0.00019637       0.00020662 </v>
   <v>       0.02052078      -0.02052078       0.03285835 </v>
   <v>      -0.00034075      -0.00034075      -0.00007670 </v>
   <v>      -0.00015899      -0.00007976       0.00005502 </v>
   <v>      -0.00034345      -0.00034006      -0.00024965 </v>
   <v>       0.00019765       0.00047428       0.00020990 </v>
   <v>      -0.00007976      -0.00015899       0.00005502 </v>
   <v>      -0.00015886      -0.00015886      -0.00007830 </v>
   <v>      -0.00047445       0.00047445       0.00205352 </v>
   <v>       0.00019637      -0.00047350       0.00020662 </v>
   <v>      -0.00034006      -0.00034345      -0.00024965 </v>
   <v>       0.00047445      -0.00047445       0.00205352 </v>
   <v>      -0.00038542      -0.00038542      -0.00025065 </v>
   <v>      -0.01994899      -0.01994899       0.03256102 </v>
   <v>       0.00033756      -0.00034403      -0.00025178 </v>
   <v>       0.00015751      -0.00008058       0.00005537 </v>
   <v>       0.00034334      -0.00034334      -0.00007720 </v>
   <v>      -0.00034403       0.00033756      -0.00025178 </v>
   <v>       0.00001852       0.00001852      -0.00009902 </v>
   <v>      -0.00001876       0.00001876      -0.00009865 </v>
   <v>       0.00034006       0.00034345      -0.00024965 </v>
   <v>      -0.00008058       0.00015751       0.00005537 </v>
   <v>       0.00001876      -0.00001876      -0.00009865 </v>
   <v>       0.00015886       0.00015886      -0.00007830 </v>
   <v>       0.00002197      -0.00000784      -0.00015554 </v>
   <v>      -0.00034334       0.00034334      -0.00007720 </v>
   <v>       0.00034345       0.00034006      -0.00024965 </v>
   <v>      -0.00000784       0.00002197      -0.00015554 </v>
   <v>       0.00002170       0.00002170      -0.00006423 </v>
   <v>       0.00047334       0.00047334       0.00203660 </v>
   <v>       0.00015763      -0.00015763      -0.00007745 </v>
   <v>       0.00008058      -0.00015751       0.00005537 </v>
   <v>      -0.00019637       0.00047350       0.00020662 </v>
   <v>      -0.00015763       0.00015763      -0.00007745 </v>
   <v>      -0.00001852      -0.00001852      -0.00009902 </v>
   <v>       0.00007976       0.00015899       0.00005502 </v>
   <v>      -0.00002194      -0.00000713      -0.00015582 </v>
   <v>      -0.00015751       0.00008058       0.00005537 </v>
   <v>       0.00015899       0.00007976       0.00005502 </v>
   <v>       0.00002373       0.00002373      -0.00010611 </v>
   <v>      -0.00002416       0.00002416      -0.00010551 </v>
   <v>       0.00047350      -0.00019637       0.00020662 </v>
   <v>      -0.00000713      -0.00002194      -0.00015582 </v>
   <v>       0.00002416      -0.00002416      -0.00010551 </v>
   <v>      -0.00002170      -0.00002170      -0.00006423 </v>
   <v>      -0.00047334      -0.00047334       0.00203660 </v>
   <v>       0.00034403      -0.00033756      -0.00025178 </v>
   <v>      -0.00019765      -0.00047428       0.00020990 </v>
   <v>       0.00038699      -0.00038699      -0.00025106 </v>
   <v>      -0.00033756       0.00034403      -0.00025178 </v>
   <v>       0.00034075       0.00034075      -0.00007670 </v>
   <v>      -0.00002214       0.00002214      -0.00006474 </v>
   <v>       0.00000713       0.00002194      -0.00015582 </v>
   <v>      -0.00047428      -0.00019765       0.00020990 </v>
   <v>       0.00002214      -0.00002214      -0.00006474 </v>
   <v>      -0.00002373      -0.00002373      -0.00010611 </v>
   <v>       0.00000784      -0.00002197      -0.00015554 </v>
   <v>      -0.00038699       0.00038699      -0.00025106 </v>
   <v>       0.00002194       0.00000713      -0.00015582 </v>
   <v>      -0.00002197       0.00000784      -0.00015554 </v>
   <v>       0.00038542       0.00038542      -0.00025065 </v>
  </varray>
  <varray name="stress" >
   <v>       5.73183941      -0.05337030      -0.00000000 </v>
   <v>      -0.05337030       5.73183941      -0.00000000 </v>
   <v>      -0.00000000      -0.00000000       5.73079600 </v>
  </varray>
  <energy>
   <i name="e_fr_energy">   -682.56884802 </i>
   <i name="e_wo_entrp">   -682.56884802 </i>
   <i name="e_0_energy">     -0.00000000 </i>
  </energy>
  <time name="totalsc">  122.53  122.87</time>
  <eigenvalues>
   <array>
    <dimension dim="1">band</dimension>
    <dimension dim="2">kpoint</dimension>
    <dimension dim="3">spin</dimension>
    <field>eigene</field>
    <field>occ</field>
    <set>
     <set comment="spin 1">
      <set comment="kpoint 1">
       <r>   -6.1630    1.0000 </r>
       <r>   -5.3786    1.0000 </r>
       <r>   -5.3778    1.0000 </r>
       <r>   -5.3776    1.0000 </r>
       <r>   -5.3775    1.0000 </r>
       <r>   -5.3774    1.0000 </r>
       <r>   -5.3774    1.0000 </r>
       <r>   -5.3772    1.0000 </r>
       <r>   -5.3764    1.0000 </r>
       <r>   -5.1005    1.0000 </r>
       <r>   -5.0999    1.0000 </r>
       <r>   -5.0996    1.0000 </r>
       <r>   -5.0996    1.0000 </r>
       <r>   -5.0994    1.0000 </r>
       <r>   -5.0987    1.0000 </r>
       <r>   -4.1590    1.0000 </r>
       <r>   -4.1576    1.0000 </r>
       <r>   -4.1571    1.0000 </r>
       <r>   -4.1570    1.0000 </r>
       <r>   -4.1570    1.0000 </r>
       <r>   -4.1570    1.0000 </r>
       <r>   -4.1569    1.0000 </r>
       <r>   -4.1569    1.0000 </r>
       <r>   -4.1569    1.0000 </r>
       <r>   -4.1568    1.0000 </r>
       <r>   -4.1563    1.0000 </r>
       <r>   -4.1550    1.0000 </r>
       <r>   -3.8818    1.0000 </r>
       <r>   -3.8814    1.0000 </r>
       <r>   -3.8809    1.0000 </r>
       <r>   -3.8806    1.0000 </r>
       <r>   -3.5002    1.0000 </r>
       <r>   -3.4978    1.0000 </r>
       <r>   -3.4966    1.0000 </r>
       <r>   -3.4965    1.0000 </r>
       <r>   -3.4964    1.0000 </r>
       <r>   -3.4964    1.0000 </r>
       <r>   -3.4963    1.0000 </r>
       <r>   -3.4963    1.0000 </r>
       <r>   -3.4963    1.0000 </r>
       <r>   -3.4963    1.0000 </r>
       <r>   -3.4962    1.0000 </r>
       <r>   -3.4962    1.0000 </r>
       <r>   -3.4962    1.0000 </r>
       <r>   -3.4962    1.0000 </r>
       <r>   -3.4962    1.0000 </r>
       <r>   -3.4962    1.0000 </r>
       <r>   -3.4962    1.0000 </r>
       <r>   -3.4961    1.0000 </r>
       <r>   -3.4961    1.0000 </r>
       <r>   -3.4961    1.0000 </r>
       <r>   -3.4959    1.0000 </r>
       <r>   -3.4958    1.0000 </r>
       <r>   -3.4946    1.0000 </r>
       <r>   -3.4923    1.0000 </r>
       <r>   -2.0919    1.0000 </r>
       <r>   -2.0914    1.0000 </r>
       <r>   -2.0909    1.0000 </r>
       <r>   -2.0909    1.0000 </r>
       <r>   -2.0904    1.0000 </r>
       <r>   -2.0900    1.0000 </r>
       <r>   -1.9373    1.0000 </r>
       <r>   -1.9365    1.0000 </r>
       <r>   -1.9356    1.0000 </r>
       <r>   -1.9355    1.0000 </r>
       <r>   -1.9354    1.0000 </r>
       <r>   -1.9354    1.0000 </r>
       <r>   -1.9354    1.0000 </r>
       <r>   -1.9354    1.0000 </r>
       <r>   -1.9353    1.0000 </r>
       <r>   -1.9352    1.0000 </r>
       <r>   -1.9343    1.0000 </r>
       <r>   -1.9335    1.0000 </r>
       <r>   -1.2191    1.0000 </r>
       <r>   -1.2185    1.0000 </r>
       <r>   -1.2183    1.0000 </r>
       <r>   -1.2178    1.0000 </r>
       <r>   -0.6722    1.0000 </r>
       <r>   -0.6709    1.0000 </r>
       <r>   -0.6689    1.0000 </r>
       <r>   -0.6689    1.0000 </r>
       <r>   -0.6689    1.0000 </r>
       <r>   -0.6688    1.0000 </r>
       <r>   -0.6687    1.0000 </r>
       <r>   -0.6687    1.0000 </r>
       <r>   -0.6687    1.0000 </r>
       <r>   -0.6687    1.0000 </r>
       <r>   -0.6687    1.0000 </r>
       <r>   -0.6686    1.0000 </r>
       <r>   -0.6686    1.0000 </r>
       <r>   -0.6686    1.0000 </r>
       <r>   -0.6686    1.0000 </r>
       <r>   -0.6685    1.0000 </r>
       <r>   -0.6685    1.0000 </r>
       <r>   -0.6685    1.0000 </r>
       <r>   -0.6685    1.0000 </r>
       <r>   -0.6684    1.0000 </r>
       <r>   -0.6683    1.0000 </r>
       <r>   -0.6683    1.0000 </r>
       <r>   -0.6663    1.0000 </r>
       <r>   -0.6650    1.0000 </r>
       <r>    0.2152    1.0000 </r>
       <r>    0.2154    1.0000 </r>
       <r>    0.2166    1.0000 </r>
       <r>    0.2167    1.0000 </r>
       <r>    0.2167    1.0000 </r>
       <r>    0.2167    1.0000 </r>
       <r>    0.2167    1.0000 </r>
       <r>    0.2168    1.0000 </r>
       <r>    0.2168    1.0000 </r>
       <r>    0.2169    1.0000 </r>
       <r>    0.2181    1.0000 </r>
       <r>    0.2182    1.0000 </r>
       <r>    1.7669    1.0000 </r>
       <r>    1.7672    1.0000 </r>
       <r>    1.7676    1.0000 </r>
       <r>    1.7678    1.0000 </r>
       <r>    1.7679    1.0000 </r>
       <r>    1.7681    1.0000 </r>
       <r>    1.7685    1.0000 </r>
       <r>    1.7688    1.0000 </r>
       <r>    1.8849    1.0000 </r>
       <r>    1.8856    1.0000 </r>
       <r>    1.8858    1.0000 </r>
       <r>    1.8858    1.0000 </r>
       <r>    1.8859    1.0000 </r>
       <r>    1.8860    1.0000 </r>
       <r>    1.8860    1.0000 </r>
       <r>    1.8861    1.0000 </r>
       <r>    1.8862    1.0000 </r>
       <r>    1.8862    1.0000 </r>
       <r>    1.8864    1.0000 </r>
       <r>    1.8871    1.0000 </r>
       <r>    1.9780    1.0000 </r>
       <r>    1.9780    1.0000 </r>
       <r>    1.9783    1.0000 </r>
       <r>    1.9788    1.0000 </r>
       <r>    1.9789    1.0000 </r>
       <r>    1.9789    1.0000 </r>
       <r>    1.9789    1.0000 </r>
       <r>    1.9789    1.0000 </r>
       <r>    1.9790    1.0000 </r>
       <r>    1.9795    1.0000 </r>
       <r>    1.9797    1.0000 </r>
       <r>    1.9797    1.0000 </r>
       <r>    2.1401    1.0000 </r>
       <r>    2.1406    1.0000 </r>
       <r>    2.1411    1.0000 </r>
       <r>    2.1411    1.0000 </r>
       <r>    2.1416    1.0000 </r>
       <r>    2.1420    1.0000 </r>
       <r>    2.1847    1.0000 </r>
       <r>    2.1853    1.0000 </r>
       <r>    2.1861    1.0000 </r>
       <r>    2.1866    1.0000 </r>
       <r>    2.1866    1.0000 </r>
       <r>    2.1867    1.0000 </r>
       <r>    2.1867    1.0000 </r>
       <r>    2.1868    1.0000 </r>
       <r>    2.1868    1.0000 </r>
       <r>    2.1869    1.0000 </r>
       <r>    2.1869    1.0000 </r>
       <r>    2.1869    1.0000 </r>
       <r>    2.1869    1.0000 </r>
       <r>    2.1869    1.0000 </r>
       <r>    2.1870    1.0000 </r>
       <r>    2.1870    1.0000 </r>
       <r>    2.1871    1.0000 </r>
       <r>    2.1871    1.0000 </r>
       <r>    2.1871    1.0000 </r>
       <r>    2.1872    1.0000 </r>
       <r>    2.1872    1.0000 </r>
       <r>    2.1877    1.0000 </r>
       <r>    2.1887    1.0000 </r>
       <r>    2.1892    1.0000 </r>
       <r>    2.8562    1.0000 </r>
       <r>    2.8566    1.0000 </r>
       <r>    2.8566    1.0000 </r>
       <r>    2.8566    1.0000 </r>
       <r>    2.8567    1.0000 </r>
       <r>    2.8571    1.0000 </r>
       <r>    3.4899    1.0000 </r>
       <r>    3.4913    1.0000 </r>
       <r>    3.4921    1.0000 </r>
       <r>    3.4921    1.0000 </r>
       <r>    3.4922    1.0000 </r>
       <r>    3.4924    1.0000 </r>
       <r>    3.4924    1.0000 </r>
       <r>    3.4924    1.0000 </r>
       <r>    3.4925    1.0000 </r>
       <r>    3.4925    1.0000 </r>
       <r>    3.4925    1.0000 </r>
       <r>    3.4925    1.0000 </r>
       <r>    3.4925    1.0000 </r>
       <r>    3.4925    1.0000 </r>
       <r>    3.4926    1.0000 </r>
       <r>    3.4926    1.0000 </r>
       <r>    3.4926    1.0000 </r>
       <r>    3.4927    1.0000 </r>
       <r>    3.4927    1.0000 </r>
       <r>    3.4928    1.0000 </r>
       <r>    3.4929    1.0000 </r>
       <r>    3.4929    1.0000 </r>
       <r>    3.4938    1.0000 </r>
       <r>    3.4951    1.0000 </r>
       <r>    3.8022    1.0000 </r>
       <r>    3.8034    1.0000 </r>
       <r>    3.8037    1.0000 </r>
       <r>    3.8038    1.0000 </r>
       <r>    3.8038    1.0000 </r>
       <r>    3.8038    1.0000 </r>
       <r>    3.8038    1.0000 </r>
       <r>    3.8038    1.0000 </r>
       <r>    3.8039    1.0000 </r>
       <r>    3.8039    1.0000 </r>
       <r>    3.8043    1.0000 </r>
       <r>    3.8055    1.0000 </r>
       <r>    4.3511    1.0000 </r>
       <r>    4.3520    1.0000 </r>
       <r>    4.3526    1.0000 </r>
       <r>    4.3527    1.0000 </r>
       <r>    4.3527    1.0000 </r>
       <r>    4.3528    1.0000 </r>
       <r>    4.3528    1.0000 </r>
       <r>    4.3529    1.0000 </r>
       <r>    4.3530    1.0000 </r>
       <r>    4.3530    1.0000 </r>
       <r>    4.3536    1.0000 </r>
       <r>    4.3545    1.0000 </r>
       <r>    4.4764    1.0000 </r>
       <r>    4.4773    1.0000 </r>
       <r>    4.4776    1.0000 </r>
       <r>    4.4776    1.0000 </r>
       <r>    4.4778    1.0000 </r>
       <r>    4.4778    1.0000 </r>
       <r>    4.4781    1.0000 </r>
       <r>    4.4790    1.0000 </r>
       <r>    4.9087    1.0000 </r>
       <r>    4.9114    1.0000 </r>
       <r>    4.9115    1.0000 </r>
       <r>    4.9116    1.0000 </r>
       <r>    4.9116    1.0000 </r>
       <r>    4.9117    1.0000 </r>
       <r>    4.9117    1.0000 </r>
       <r>    4.9118    1.0000 </r>
       <r>    4.9118    1.0000 </r>
       <r>    4.9118    1.0000 </r>
       <r>    4.9118    1.0000 </r>
       <r>    4.9119    1.0000 </r>
       <r>    4.9120    1.0000 </r>
       <r>    4.9121    1.0000 </r>
       <r>    4.9122    1.0000 </r>
       <r>    4.9149    1.0000 </r>
       <r>    5.6597    1.0000 </r>
       <r>    5.6604    1.0000 </r>
       <r>    5.6612    1.0000 </r>
       <r>    6.3944    0.0000 </r>
       <r>    6.3947    0.0000 </r>
       <r>    6.3951    0.0000 </r>
       <r>    6.3951    0.0000 </r>
       <r>    6.3956    0.0000 </r>
       <r>    6.3958    0.0000 </r>
       <r>    6.7955    0.0000 </r>
       <r>    6.7957    0.0000 </r>
       <r>    6.7963    0.0000 </r>
       <r>    6.7963    0.0000 </r>
       <r>    6.7968    0.0000 </r>
       <r>    6.7970    0.0000 </r>
       <r>    7.1207    0.0000 </r>
       <r>    7.1208    0.0000 </r>
       <r>    7.1209    0.0000 </r>
       <r>    7.1210    0.0000 </r>
       <r>    7.1833    0.0000 </r>
       <r>    7.1837    0.0000 </r>
       <r>    7.1858    0.0000 </r>
       <r>    7.1858    0.0000 </r>
       <r>    7.1858    0.0000 </r>
       <r>    7.1858    0.0000 </r>
       <r>    7.1859    0.0000 </r>
       <r>    7.1859    0.0000 </r>
       <r>    7.1859    0.0000 </r>
       <r>    7.1859    0.0000 </r>
       <r>    7.1860    0.0000 </r>
       <r>    7.1860    0.0000 </r>
       <r>    7.1860    0.0000 </r>
       <r>    7.1860    0.0000 </r>
       <r>    7.1861    0.0000 </r>
       <r>    7.1861    0.0000 </r>
       <r>    7.1861    0.0000 </r>
       <r>    7.1861    0.0000 </r>
       <r>    7.1862    0.0000 </r>
       <r>    7.1862    0.0000 </r>
       <r>    7.1862    0.0000 </r>
       <r>    7.1862    0.0000 </r>
       <r>    7.1883    0.0000 </r>
       <r>    7.1887    0.0000 </r>
       <r>    7.6116    0.0000 </r>
       <r>    7.6118    0.0000 </r>
       <r>    7.6120    0.0000 </r>
       <r>    7.6122    0.0000 </r>
       <r>    7.6122    0.0000 </r>
       <r>    7.6124    0.0000 </r>
       <r>    7.6127    0.0000 </r>
       <r>    7.6129    0.0000 </r>
       <r>    8.0817    0.0000 </r>
       <r>    8.0818    0.0000 </r>
       <r>    8.0828    0.0000 </r>
       <r>    8.0828    0.0000 </r>
       <r>    8.0829    0.0000 </r>
       <r>    8.0829    0.0000 </r>
       <r>    8.0829    0.0000 </r>
       <r>    8.0830    0.0000 </r>
       <r>    8.0830    0.0000 </r>
       <r>    8.0831    0.0000 </r>
       <r>    8.0841    0.0000 </r>
       <r>    8.0842    0.0000 </r>
       <r>    8.1989    0.0000 </r>
       <r>    8.1993    0.0000 </r>
       <r>    8.1998    0.0000 </r>
       <r>    8.7788    0.0000 </r>
       <r>    8.7792    0.0000 </r>
       <r>    8.7875    0.0000 </r>
      </set>
     </set>
    </set>
   </array>
  </eigenvalues>
  <separator name="orbital magnetization" >
   <v name="MAGDIPOLOUT">      0.00000000      0.00000000      0.00000000</v>
  </separator>
  <dos>
   <i name="efermi">      5.92043134 </i>
   <total>
    <array>
     <dimension dim="1">gridpoints</dimension>
     <dimension dim="2">spin</dimension>
     <field>energy</field>
     <field>total</field>
     <field>integrated</field>
     <set>
      <set comment="spin 1">
       <r>    -6.9105     0.0000     0.0000 </r>
       <r>    -6.8557     0.0000     0.0000 </r>
       <r>    -6.8009     0.0000     0.0000 </r>
       <r>    -6.7461     0.0000     0.0000 </r>
       <r>    -6.6913     0.0000     0.0000 </r>
       <r>    -6.6364     0.0000     0.0000 </r>
       <r>    -6.5816     0.0000     0.0000 </r>
       <r>    -6.5268     0.0000     0.0000 </r>
       <r>    -6.4720     0.0000     0.0000 </r>
       <r>    -6.4172     0.0000     0.0000 </r>
       <r>    -6.3624     0.0000     0.0000 </r>
       <r>    -6.3075     0.0008     0.0000 </r>
       <r>    -6.2527     0.2031     0.0112 </r>
       <r>    -6.1979     5.7029     0.3238 </r>
       <r>    -6.1431    20.1269     1.4271 </r>
       <r>    -6.0883     9.8213     1.9655 </r>
       <r>    -6.0334     0.6246     1.9998 </r>
       <r>    -5.9786     0.0045     2.0000 </r>
       <r>    -5.9238     0.0000     2.0000 </r>
       <r>    -5.8690     0.0000     2.0000 </r>
       <r>    -5.8142     0.0000     2.0000 </r>
       <r>    -5.7593     0.0000     2.0000 </r>
       <r>    -5.7045     0.0000     2.0000 </r>
       <r>    -5.6497     0.0000     2.0000 </r>
       <r>    -5.5949     0.0000     2.0000 </r>
       <r>    -5.5401     0.0006     2.0000 </r>
       <r>    -5.4853     0.3353     2.0184 </r>
       <r>    -5.4304    19.2422     3.0732 </r>
       <r>    -5.3756   132.4539    10.3342 </r>
       <r>    -5.3208   123.9317    17.1279 </r>
       <r>    -5.2660    15.6726    17.9871 </r>
       <r>    -5.2112     0.4114    18.0096 </r>
       <r>    -5.1563    11.7279    18.6525 </r>
       <r>    -5.1015    92.8801    23.7441 </r>
       <r>    -5.0467    99.4061    29.1934 </r>
       <r>    -4.9919    14.4612    29.9861 </r>
       <r>    -4.9371     0.2524    30.0000 </r>
       <r>    -4.8823     0.0005    30.0000 </r>
       <r>    -4.8274     0.0000    30.0000 </r>
       <r>    -4.7726     0.0000    30.0000 </r>
       <r>    -4.7178     0.0000    30.0000 </r>
       <r>    -4.6630     0.0000    30.0000 </r>
       <r>    -4.6082     0.0000    30.0000 </r>
       <r>    -4.5533     0.0000    30.0000 </r>
       <r>    -4.4985     0.0000    30.0000 </r>
       <r>    -4.4437     0.0000    30.0000 </r>
       <r>    -4.3889     0.0000    30.0000 </r>
       <r>    -4.3341     0.0001    30.0000 </r>
       <r>    -4.2792     0.1190    30.0065 </r>
       <r>    -4.2244    12.2284    30.6769 </r>
       <r>    -4.1696   145.3658    38.6456 </r>
       <r>    -4.1148   229.0514    51.2019 </r>
       <r>    -4.0600    49.7075    53.9268 </r>
       <r>    -4.0052     1.3649    54.0016 </r>
       <r>    -3.9503     3.6512    54.2018 </r>
       <r>    -3.8955    46.2922    56.7394 </r>
       <r>    -3.8407    77.5460    60.9904 </r>
       <r>    -3.7859    17.9036    61.9718 </r>
       <r>    -3.7311     0.5122    61.9999 </r>
       <r>    -3.6762     0.0018    62.0000 </r>
       <r>    -3.6214     0.1757    62.0096 </r>
       <r>    -3.5666    20.2515    63.1198 </r>
       <r>    -3.5118   268.5489    77.8413 </r>
       <r>    -3.4570   469.6905   103.5890 </r>
       <r>    -3.4022   113.5204   109.8120 </r>
       <r>    -3.3473     3.4174   109.9994 </r>
       <r>    -3.2925     0.0112   110.0000 </r>
       <r>    -3.2377     0.0000   110.0000 </r>
       <r>    -3.1829     0.0000   110.0000 </r>
       <r>    -3.1281     0.0000   110.0000 </r>
       <r>    -3.0732     0.0000   110.0000 </r>
       <r>    -3.0184     0.0000   110.0000 </r>
       <r>    -2.9636     0.0000   110.0000 </r>
       <r>    -2.9088     0.0000   110.0000 </r>
       <r>    -2.8540     0.0000   110.0000 </r>
       <r>    -2.7991     0.0000   110.0000 </r>
       <r>    -2.7443     0.0000   110.0000 </r>
       <r>    -2.6895     0.0000   110.0000 </r>
       <r>    -2.6347     0.0000   110.0000 </r>
       <r>    -2.5799     0.0000   110.0000 </r>
       <r>    -2.5251     0.0000   110.0000 </r>
       <r>    -2.4702     0.0000   110.0000 </r>
       <r>    -2.4154     0.0000   110.0000 </r>
       <r>    -2.3606     0.0000   110.0000 </r>
       <r>    -2.3058     0.0000   110.0000 </r>
       <r>    -2.2510     0.0007   110.0000 </r>
       <r>    -2.1961     0.3198   110.0176 </r>
       <r>    -2.1413    16.5532   110.9250 </r>
       <r>    -2.0865   103.4945   116.5984 </r>
       <r>    -2.0317    89.6831   121.5147 </r>
       <r>    -1.9769    61.4478   124.8832 </r>
       <r>    -1.9220   230.6678   137.5281 </r>
       <r>    -1.8672   142.7352   145.3526 </r>
       <r>    -1.8124    11.6989   145.9939 </r>
       <r>    -1.7576     0.1108   146.0000 </r>
       <r>    -1.7028     0.0001   146.0000 </r>
       <r>    -1.6480     0.0000   146.0000 </r>
       <r>    -1.5931     0.0000   146.0000 </r>
       <r>    -1.5383     0.0000   146.0000 </r>
       <r>    -1.4835     0.0000   146.0000 </r>
       <r>    -1.4287     0.0000   146.0000 </r>
       <r>    -1.3739     0.0008   146.0000 </r>
       <r>    -1.3190     0.3220   146.0177 </r>
       <r>    -1.2642    13.9082   146.7801 </r>
       <r>    -1.2094    73.3972   150.8037 </r>
       <r>    -1.1546    53.1203   153.7156 </r>
       <r>    -1.0998     5.1295   153.9968 </r>
       <r>    -1.0450     0.0578   154.0000 </r>
       <r>    -0.9901     0.0001   154.0000 </r>
       <r>    -0.9353     0.0000   154.0000 </r>
       <r>    -0.8805     0.0000   154.0000 </r>
       <r>    -0.8257     0.0039   154.0002 </r>
       <r>    -0.7709     1.6836   154.0925 </r>
       <r>    -0.7160    77.1823   158.3235 </r>
       <r>    -0.6612   431.4984   181.9777 </r>
       <r>    -0.6064   330.8287   200.1132 </r>
       <r>    -0.5516    34.0079   201.9775 </r>
       <r>    -0.4968     0.4104   202.0000 </r>
       <r>    -0.4419     0.0005   202.0000 </r>
       <r>    -0.3871     0.0000   202.0000 </r>
       <r>    -0.3323     0.0000   202.0000 </r>
       <r>    -0.2775     0.0000   202.0000 </r>
       <r>    -0.2227     0.0000   202.0000 </r>
       <r>    -0.1679     0.0000   202.0000 </r>
       <r>    -0.1130     0.0000   202.0000 </r>
       <r>    -0.0582     0.0000   202.0000 </r>
       <r>    -0.0034     0.0000   202.0000 </r>
       <r>     0.0514     0.0006   202.0000 </r>
       <r>     0.1062     0.3893   202.0214 </r>
       <r>     0.1611    24.8715   203.3848 </r>
       <r>     0.2159   189.3982   213.7673 </r>
       <r>     0.2707   195.3330   224.4752 </r>
       <r>     0.3255    27.3558   225.9748 </r>
       <r>     0.3803     0.4587   226.0000 </r>
       <r>     0.4351     0.0008   226.0000 </r>
       <r>     0.4900     0.0000   226.0000 </r>
       <r>     0.5448     0.0000   226.0000 </r>
       <r>     0.5996     0.0000   226.0000 </r>
       <r>     0.6544     0.0000   226.0000 </r>
       <r>     0.7092     0.0000   226.0000 </r>
       <r>     0.7641     0.0000   226.0000 </r>
       <r>     0.8189     0.0000   226.0000 </r>
       <r>     0.8737     0.0000   226.0000 </r>
       <r>     0.9285     0.0000   226.0000 </r>
       <r>     0.9833     0.0000   226.0000 </r>
       <r>     1.0382     0.0000   226.0000 </r>
       <r>     1.0930     0.0000   226.0000 </r>
       <r>     1.1478     0.0000   226.0000 </r>
       <r>     1.2026     0.0000   226.0000 </r>
       <r>     1.2574     0.0000   226.0000 </r>
       <r>     1.3122     0.0000   226.0000 </r>
       <r>     1.3671     0.0000   226.0000 </r>
       <r>     1.4219     0.0000   226.0000 </r>
       <r>     1.4767     0.0000   226.0000 </r>
       <r>     1.5315     0.0000   226.0000 </r>
       <r>     1.5863     0.0000   226.0000 </r>
       <r>     1.6412     0.0496   226.0027 </r>
       <r>     1.6960     6.0980   226.3370 </r>
       <r>     1.7508    85.7921   231.0400 </r>
       <r>     1.8056   163.3168   239.9928 </r>
       <r>     1.8604   138.3008   247.5742 </r>
       <r>     1.9152   262.5288   261.9657 </r>
       <r>     1.9701   245.6093   275.4297 </r>
       <r>     2.0249   223.5924   287.6867 </r>
       <r>     2.0797    51.3438   290.5013 </r>
       <r>     2.1345   144.7801   298.4379 </r>
       <r>     2.1893   507.8371   326.2768 </r>
       <r>     2.2442   386.1651   347.4458 </r>
       <r>     2.2990    45.9219   349.9632 </r>
       <r>     2.3538     0.6704   349.9999 </r>
       <r>     2.4086     0.0010   350.0000 </r>
       <r>     2.4634     0.0000   350.0000 </r>
       <r>     2.5183     0.0000   350.0000 </r>
       <r>     2.5731     0.0000   350.0000 </r>
       <r>     2.6279     0.0000   350.0000 </r>
       <r>     2.6827     0.0001   350.0000 </r>
       <r>     2.7375     0.0828   350.0045 </r>
       <r>     2.7923     7.4839   350.4148 </r>
       <r>     2.8472    78.8348   354.7364 </r>
       <r>     2.9020   110.6819   360.8038 </r>
       <r>     2.9568    21.3171   361.9724 </r>
       <r>     3.0116     0.5021   361.9999 </r>
       <r>     3.0664     0.0013   362.0000 </r>
       <r>     3.1213     0.0000   362.0000 </r>
       <r>     3.1761     0.0000   362.0000 </r>
       <r>     3.2309     0.0000   362.0000 </r>
       <r>     3.2857     0.0000   362.0000 </r>
       <r>     3.3405     0.0076   362.0004 </r>
       <r>     3.3954     2.6216   362.1441 </r>
       <r>     3.4502    98.5613   367.5471 </r>
       <r>     3.5050   457.2784   392.6145 </r>
       <r>     3.5598   292.1529   408.6299 </r>
       <r>     3.6146    24.7510   409.9867 </r>
       <r>     3.6694     0.2744   410.0017 </r>
       <r>     3.7243     5.3179   410.2932 </r>
       <r>     3.7791   100.5863   415.8072 </r>
       <r>     3.8339   245.3608   429.2576 </r>
       <r>     3.8887    82.9267   433.8035 </r>
       <r>     3.9435     3.5677   433.9991 </r>
       <r>     3.9984     0.0171   434.0000 </r>
       <r>     4.0532     0.0000   434.0000 </r>
       <r>     4.1080     0.0000   434.0000 </r>
       <r>     4.1628     0.0000   434.0000 </r>
       <r>     4.2176     0.0289   434.0016 </r>
       <r>     4.2724     5.0169   434.2766 </r>
       <r>     4.3273    97.8426   439.6402 </r>
       <r>     4.3821   246.6354   453.1604 </r>
       <r>     4.4369   120.7540   459.7800 </r>
       <r>     4.4917   158.4355   468.4652 </r>
       <r>     4.5465    93.4410   473.5875 </r>
       <r>     4.6014     7.4568   473.9962 </r>
       <r>     4.6562     0.0686   474.0000 </r>
       <r>     4.7110     0.0001   474.0000 </r>
       <r>     4.7658     0.0107   474.0006 </r>
       <r>     4.8206     2.9004   474.1596 </r>
       <r>     4.8755    85.9394   478.8707 </r>
       <r>     4.9303   319.4267   496.3812 </r>
       <r>     4.9851   164.3095   505.3884 </r>
       <r>     5.0399    11.0718   505.9953 </r>
       <r>     5.0947     0.0852   506.0000 </r>
       <r>     5.1495     0.0001   506.0000 </r>
       <r>     5.2044     0.0000   506.0000 </r>
       <r>     5.2592     0.0000   506.0000 </r>
       <r>     5.3140     0.0000   506.0000 </r>
       <r>     5.3688     0.0000   506.0000 </r>
       <r>     5.4236     0.0000   506.0000 </r>
       <r>     5.4785     0.0000   506.0000 </r>
       <r>     5.5333     0.0177   506.0010 </r>
       <r>     5.5881     2.2147   506.1224 </r>
       <r>     5.6429    31.7164   507.8610 </r>
       <r>     5.6977    59.5523   511.1256 </r>
       <r>     5.7525    15.4484   511.9725 </r>
       <r>     5.8074     0.5008   511.9999 </r>
       <r>     5.8622     0.0018   512.0000 </r>
       <r>     5.9170     0.0000   512.0000 </r>
       <r>     5.9718     0.0000   512.0000 </r>
       <r>     6.0266     0.0000   512.0000 </r>
       <r>     6.0815     0.0000   512.0000 </r>
       <r>     6.1363     0.0000   512.0000 </r>
       <r>     6.1911     0.0000   512.0000 </r>
       <r>     6.2459     0.0027   512.0001 </r>
       <r>     6.3007     0.8286   512.0456 </r>
       <r>     6.3556    27.9596   513.5783 </r>
       <r>     6.4104   117.1773   520.0018 </r>
       <r>     6.4652    67.7328   523.7148 </r>
       <r>     6.5200     5.1578   523.9975 </r>
       <r>     6.5748     0.0451   524.0000 </r>
       <r>     6.6296     0.0003   524.0000 </r>
       <r>     6.6845     0.1714   524.0094 </r>
       <r>     6.7393    11.5505   524.6426 </r>
       <r>     6.7941    92.4026   529.7080 </r>
       <r>     6.8489    99.8489   535.1815 </r>
       <r>     6.9037    14.6711   535.9858 </r>
       <r>     6.9586     0.2591   536.0000 </r>
       <r>     7.0134     0.1733   536.0095 </r>
       <r>     7.0682    10.1572   536.5663 </r>
       <r>     7.1230    99.0082   541.9938 </r>
       <r>     7.1778   386.6570   563.1898 </r>
       <r>     7.2327   443.4940   587.5015 </r>
       <r>     7.2875    80.2582   591.9011 </r>
       <r>     7.3423     1.7996   591.9998 </r>
       <r>     7.3971     0.0043   592.0000 </r>
       <r>     7.4519     0.0008   592.0000 </r>
       <r>     7.5067     0.4150   592.0228 </r>
       <r>     7.5616    21.7409   593.2146 </r>
       <r>     7.6164   137.4051   600.7470 </r>
       <r>     7.6712   118.3911   607.2370 </r>
       <r>     7.7260    13.7306   607.9897 </r>
       <r>     7.7808     0.1881   608.0000 </r>
       <r>     7.8357     0.0003   608.0000 </r>
       <r>     7.8905     0.0000   608.0000 </r>
       <r>     7.9453     0.0217   608.0012 </r>
       <r>     8.0001     4.1741   608.2300 </r>
       <r>     8.0549    89.5689   613.1400 </r>
       <r>     8.1097   246.5119   626.6535 </r>
       <r>     8.1646   110.7496   632.7246 </r>
       <r>     8.2194    64.9800   636.2867 </r>
       <r>     8.2742    29.3812   637.8974 </r>
       <r>     8.3290     1.8591   637.9993 </r>
       <r>     8.3838     0.0134   638.0000 </r>
       <r>     8.4387     0.0000   638.0000 </r>
       <r>     8.4935     0.0000   638.0000 </r>
       <r>     8.5483     0.0000   638.0000 </r>
       <r>     8.6031     0.0000   638.0000 </r>
       <r>     8.6579     0.0270   638.0015 </r>
       <r>     8.7128     2.8265   638.1564 </r>
       <r>     8.7676    34.8327   640.0659 </r>
       <r>     8.8224    57.8424   643.2367 </r>
       <r>     8.8772    13.5199   643.9779 </r>
       <r>     8.9320     0.4022   643.9999 </r>
       <r>     8.9868     0.0013   644.0000 </r>
       <r>     9.0417     0.0000   644.0000 </r>
       <r>     9.0965     0.0000   644.0000 </r>
       <r>     9.1513     0.0000   644.0000 </r>
       <r>     9.2061     0.0000   644.0000 </r>
       <r>     9.2609     0.0000   644.0000 </r>
       <r>     9.3158     0.0000   644.0000 </r>
       <r>     9.3706     0.0000   644.0000 </r>
       <r>     9.4254     0.0000   644.0000 </r>
       <r>     9.4802     0.0000   644.0000 </r>
       <r>     9.5350     0.0000   644.0000 </r>
      </set>
     </set>
    </array>
   </total>
  </dos>
 </calculation>
 <structure name="finalpos" >
  <crystal>
   <varray name="basis" >
    <v>       0.00000000      10.93716070      10.93716070 </v>
    <v>      10.93716070       0.00000000      10.93716070 </v>
    <v>      10.93716070      10.93716070       0.00000000 </v>
   </varray>
   <i name="volume">   2616.63878844 </i>
   <varray name="rec_basis" >
    <v>      -0.04571570       0.04571570       0.04571570 </v>
    <v>       0.04571570      -0.04571570       0.04571570 </v>
    <v>       0.04571570       0.04571570      -0.04571570 </v>
   </varray>
  </crystal>
  <varray name="positions" >
   <v>       0.06295716       0.06295716       0.06204284 </v>
   <v>       0.31250000       0.06250000       0.06250000 </v>
   <v>       0.56250000       0.06250000       0.06250000 </v>
   <v>       0.81250000       0.06250000       0.06250000 </v>
   <v>       0.06250000       0.31250000       0.06250000 </v>
   <v>       0.31250000       0.31250000       0.06250000 </v>
   <v>       0.56250000       0.31250000       0.06250000 </v>
   <v>       0.81250000       0.31250000       0.06250000 </v>
   <v>       0.06250000       0.56250000       0.06250000 </v>
   <v>       0.31250000       0.56250000       0.06250000 </v>
   <v>       0.56250000       0.56250000       0.06250000 </v>
   <v>       0.81250000       0.56250000       0.06250000 </v>
   <v>       0.06250000       0.81250000       0.06250000 </v>
   <v>       0.31250000       0.81250000       0.06250000 </v>
   <v>       0.56250000       0.81250000       0.06250000 </v>
   <v>       0.81250000       0.81250000       0.06250000 </v>
   <v>       0.06250000       0.06250000       0.31250000 </v>
   <v>       0.31250000       0.06250000       0.31250000 </v>
   <v>       0.56250000       0.06250000       0.31250000 </v>
   <v>       0.81250000       0.06250000       0.31250000 </v>
   <v>       0.06250000       0.31250000       0.31250000 </v>
   <v>       0.31250000       0.31250000       0.31250000 </v>
   <v>       0.56250000       0.31250000       0.31250000 </v>
   <v>       0.81250000       0.31250000       0.31250000 </v>
   <v>       0.06250000       0.56250000       0.31250000 </v>
   <v>       0.31250000       0.56250000       0.31250000 </v>
   <v>       0.56250000       0.56250000       0.31250000 </v>
   <v>       0.81250000       0.56250000       0.31250000 </v>
   <v>       0.06250000       0.81250000       0.31250000 </v>
   <v>       0.31250000       0.81250000       0.31250000 </v>
   <v>       0.56250000       0.81250000       0.31250000 </v>
   <v>       0.81250000       0.81250000       0.31250000 </v>
   <v>       0.06250000       0.06250000       0.56250000 </v>
   <v>       0.31250000       0.06250000       0.56250000 </v>
   <v>       0.56250000       0.06250000       0.56250000 </v>
   <v>       0.81250000       0.06250000       0.56250000 </v>
   <v>       0.06250000       0.31250000       0.56250000 </v>
   <v>       0.31250000       0.31250000       0.56250000 </v>
   <v>       0.56250000       0.31250000       0.56250000 </v>
   <v>       0.81250000       0.31250000       0.56250000 </v>
   <v>       0.06250000       0.56250000       0.56250000 </v>
   <v>       0.31250000       0.56250000       0.56250000 </v>
   <v>       0.56250000       0.56250000       0.56250000 </v>
   <v>       0.81250000       0.56250000       0.56250000 </v>
   <v>       0.06250000       0.81250000       0.56250000 </v>
   <v>       0.31250000       0.81250000       0.56250000 </v>
   <v>       0.56250000       0.81250000       0.56250000 </v>
   <v>       0.81250000       0.81250000       0.56250000 </v>
   <v>       0.06250000       0.06250000       0.81250000 </v>
   <v>       0.31250000       0.06250000       0.81250000 </v>
   <v>       0.56250000       0.06250000       0.81250000 </v>
   <v>       0.81250000       0.06250000       0.81250000 </v>
   <v>       0.06250000       0.31250000       0.81250000 </v>
   <v>       0.31250000       0.31250000       0.81250000 </v>
   <v>       0.56250000       0.31250000       0.81250000 </v>
   <v>       0.81250000       0.31250000       0.81250000 </v>
   <v>       0.06250000       0.56250000       0.81250000 </v>
   <v>       0.31250000       0.56250000       0.81250000 </v>
   <v>       0.56250000       0.56250000       0.81250000 </v>
   <v>       0.81250000       0.56250000       0.81250000 </v>
   <v>       0.06250000       0.81250000       0.81250000 </v>
   <v>       0.31250000       0.81250000       0.81250000 </v>
   <v>       0.56250000       0.81250000       0.81250000 </v>
   <v>       0.81250000       0.81250000       0.81250000 </v>
   <v>       0.00000000       0.00000000       0.00000000 </v>
   <v>       0.25000000       0.00000000       0.00000000 </v>
   <v>       0.50000000       0.00000000       0.00000000 </v>
   <v>       0.75000000       0.00000000       0.00000000 </v>
   <v>       0.00000000       0.25000000       0.00000000 </v>
   <v>       0.25000000       0.25000000       0.00000000 </v>
   <v>       0.50000000       0.25000000       0.00000000 </v>
   <v>       0.75000000       0.25000000       0.00000000 </v>
   <v>       0.00000000       0.50000000       0.00000000 </v>
   <v>       0.25000000       0.50000000       0.00000000 </v>
   <v>       0.50000000       0.50000000       0.00000000 </v>
   <v>       0.75000000       0.50000000       0.00000000 </v>
   <v>       0.00000000       0.75000000       0.00000000 </v>
   <v>       0.25000000       0.75000000       0.00000000 </v>
   <v>       0.50000000       0.75000000       0.00000000 </v>
   <v>       0.75000000       0.75000000       0.00000000 </v>
   <v>       0.00000000       0.00000000       0.25000000 </v>
   <v>       0.25000000       0.00000000       0.25000000 </v>
   <v>       0.50000000       0.00000000       0.25000000 </v>
   <v>       0.75000000       0.00000000       0.25000000 </v>
   <v>       0.00000000       0.25000000       0.25000000 </v>
   <v>       0.25000000       0.25000000       0.25000000 </v>
   <v>       0.50000000       0.25000000       0.25000000 </v>
   <v>       0.75000000       0.25000000       0.25000000 </v>
   <v>       0.00000000       0.50000000       0.25000000 </v>
   <v>       0.25000000       0.50000000       0.25000000 </v>
   <v>       0.50000000       0.50000000       0.25000000 </v>
   <v>       0.75000000       0.50000000       0.25000000 </v>
   <v>       0.00000000       0.75000000       0.25000000 </v>
   <v>       0.25000000       0.75000000       0.25000000 </v>
   <v>       0.50000000       0.75000000       0.25000000 </v>
   <v>       0.75000000       0.75000000       0.25000000 </v>
   <v>       0.00000000       0.00000000       0.50000000 </v>
   <v>       0.25000000       0.00000000       0.50000000 </v>
   <v>       0.50000000       0.00000000       0.50000000 </v>
   <v>       0.75000000       0.00000000       0.50000000 </v>
   <v>       0.00000000       0.25000000       0.50000000 </v>
   <v>       0.25000000       0.25000000       0.50000000 </v>
   <v>       0.50000000       0.25000000       0.50000000 </v>
   <v>       0.75000000       0.25000000       0.50000000 </v>
   <v>       0.00000000       0.50000000       0.50000000 </v>
   <v>       0.25000000       0.50000000       0.50000000 </v>
   <v>       0.50000000       0.50000000       0.50000000 </v>
   <v>       0.75000000       0.50000000       0.50000000 </v>
   <v>       0.00000000       0.75000000       0.50000000 </v>
   <v>       0.25000000       0.75000000       0.50000000 </v>
   <v>       0.50000000       0.75000000       0.50000000 </v>
   <v>       0.75000000       0.75000000       0.50000000 </v>
   <v>       0.00000000       0.00000000       0.75000000 </v>
   <v>       0.25000000       0.00000000       0.75000000 </v>
   <v>       0.50000000       0.00000000       0.75000000 </v>
   <v>       0.75000000       0.00000000       0.75000000 </v>
   <v>       0.00000000       0.25000000       0.75000000 </v>
   <v>       0.25000000       0.25000000       0.75000000 </v>
   <v>       0.50000000       0.25000000       0.75000000 </v>
   <v>       0.75000000       0.25000000       0.75000000 </v>
   <v>       0.00000000       0.50000000       0.75000000 </v>
   <v>       0.25000000       0.50000000       0.75000000 </v>
   <v>       0.50000000       0.50000000       0.75000000 </v>
   <v>       0.75000000       0.50000000       0.75000000 </v>
   <v>       0.00000000       0.75000000       0.75000000 </v>
   <v>       0.25000000       0.75000000       0.75000000 </v>
   <v>       0.50000000       0.75000000       0.75000000 </v>
   <v>       0.75000000       0.75000000       0.75000000 </v>
  </varray>
 </structure>
</modeling>
