<?xml version="1.0" encoding="ISO-8859-1"?>
<modeling>
 <generator>
  <i name="program" type="string">vasp </i>
  <i name="version" type="string">5.4.4.18Apr17-6-g9f103f2a35  </i>
  <i name="subversion" type="string">(build Aug 16 2020 16:33:06) complex            parallel </i>
  <i name="platform" type="string">LinuxIFC </i>
  <i name="date" type="string">2026 09 25 </i>
  <i name="time" type="string">14:43:10 </i>
 </generator>
 <incar>
  <i type="string" name="PREC">accurate</i>
  <i type="logical" name="ADDGRID"> T  </i>
  <i type="int" name="IBRION">    -1</i>
  <i name="EDIFF">      0.00000001</i>
  <i name="ENCUT">    500.00000000</i>
  <i type="logical" name="LREAL"> F  </i>
  <i type="int" name="ISMEAR">     0</i>
  <i name="SIGMA">      0.05000000</i>
  <i type="logical" name="LWAVE"> F  </i>
  <i type="logical" name="LCHARG"> F  </i>
  <v type="int" name="KPOINT_BSE">    -1     0     0     0</v>
 </incar>
 <structure name="primitive_cell" >
  <crystal>
   <varray name="basis" >
    <v>       0.00000000      10.93716070      10.93716070 </v>
    <v>      10.93716070       0.00000000      10.93716070 </v>
    <v>      10.93716070      10.93716070       0.00000000 </v>
   </varray>
   <i name="volume">   2616.63878844 </i>
   <varray name="rec_basis" >
    <v>      -0.04571570       0.04571570       0.04571570 </v>
    <v>       0.04571570      -0.04571570       0.04571570 </v>
    <v>       0.04571570       0.04571570      -0.04571570 </v>
   </varray>
  </crystal>
  <varray name="positions" >
   <v>       0.06295716       0.06204284       0.06204284 </v>
   <v>       0.25000000       0.00000000       0.00000000 </v>
   <v>       0.00000000       0.00000000       0.00000000 </v>
   <v>       0.00000000       0.25000000       0.00000000 </v>
   <v>       0.00000000       0.00000000       0.25000000 </v>
   <v>       0.06250000      -0.18750000       0.06250000 </v>
   <v>       0.31250000      -0.18750000       0.06250000 </v>
   <v>       0.06250000       0.06250000      -0.18750000 </v>
   <v>       0.31250000       0.06250000      -0.18750000 </v>
   <v>       0.31250000       0.06250000       0.06250000 </v>
   <v>      -0.18750000       0.06250000       0.06250000 </v>
   <v>       0.06250000      -0.18750000       0.31250000 </v>
   <v>       0.06250000       0.31250000      -0.18750000 </v>
   <v>       0.06250000       0.31250000       0.06250000 </v>
   <v>      -0.18750000       0.31250000       0.06250000 </v>
   <v>       0.06250000       0.06250000       0.31250000 </v>
   <v>      -0.18750000       0.06250000       0.31250000 </v>
   <v>       0.25000000      -0.25000000       0.00000000 </v>
   <v>       0.25000000       0.00000000      -0.25000000 </v>
   <v>       0.00000000      -0.25000000       0.25000000 </v>
   <v>       0.25000000      -0.25000000       0.25000000 </v>
   <v>       0.00000000       0.25000000      -0.25000000 </v>
   <v>       0.25000000       0.25000000      -0.25000000 </v>
   <v>       0.25000000       0.25000000       0.00000000 </v>
   <v>       0.25000000       0.00000000       0.25000000 </v>
   <v>      -0.25000000       0.25000000       0.00000000 </v>
   <v>      -0.25000000       0.00000000       0.25000000 </v>
   <v>       0.00000000       0.25000000       0.25000000 </v>
   <v>      -0.25000000       0.25000000       0.25000000 </v>
   <v>       0.31250000      -0.18750000      -0.18750000 </v>
   <v>       0.31250000      -0.18750000       0.31250000 </v>
   <v>      -0.18750000      -0.18750000       0.31250000 </v>
   <v>       0.31250000       0.31250000      -0.18750000 </v>
   <v>      -0.18750000       0.31250000      -0.18750000 </v>
   <v>      -0.18750000       0.31250000       0.31250000 </v>
   <v>       0.00000000      -0.25000000       0.00000000 </v>
   <v>      -0.50000000      -0.25000000       0.00000000 </v>
   <v>       0.00000000       0.00000000      -0.25000000 </v>
   <v>      -0.50000000       0.00000000      -0.25000000 </v>
   <v>      -0.50000000       0.00000000       0.00000000 </v>
   <v>      -0.25000000       0.00000000       0.00000000 </v>
   <v>       0.00000000      -0.25000000      -0.50000000 </v>
   <v>       0.00000000      -0.50000000      -0.25000000 </v>
   <v>       0.00000000      -0.50000000       0.00000000 </v>
   <v>       0.00000000       0.00000000      -0.50000000 </v>
   <v>      -0.25000000      -0.50000000       0.00000000 </v>
   <v>      -0.25000000       0.00000000      -0.50000000 </v>
   <v>       0.31250000      -0.43750000       0.06250000 </v>
   <v>       0.31250000       0.06250000      -0.43750000 </v>
   <v>       0.06250000      -0.18750000      -0.18750000 </v>
   <v>      -0.43750000      -0.18750000      -0.18750000 </v>
   <v>      -0.43750000      -0.18750000       0.06250000 </v>
   <v>       0.31250000      -0.43750000       0.31250000 </v>
   <v>       0.06250000       0.31250000      -0.43750000 </v>
   <v>      -0.18750000       0.06250000      -0.18750000 </v>
   <v>      -0.18750000      -0.18750000       0.06250000 </v>
   <v>       0.06250000      -0.43750000       0.31250000 </v>
   <v>       0.31250000       0.31250000      -0.43750000 </v>
   <v>      -0.43750000       0.06250000      -0.18750000 </v>
   <v>       0.31250000       0.31250000       0.06250000 </v>
   <v>      -0.43750000       0.31250000       0.06250000 </v>
   <v>       0.31250000       0.06250000       0.31250000 </v>
   <v>      -0.43750000       0.06250000       0.31250000 </v>
   <v>       0.06250000      -0.18750000      -0.43750000 </v>
   <v>      -0.18750000      -0.18750000      -0.43750000 </v>
   <v>       0.06250000      -0.43750000      -0.18750000 </v>
   <v>      -0.18750000      -0.43750000      -0.18750000 </v>
   <v>      -0.18750000      -0.43750000       0.06250000 </v>
   <v>       0.06250000       0.31250000       0.31250000 </v>
   <v>      -0.43750000       0.31250000       0.31250000 </v>
   <v>      -0.18750000       0.06250000      -0.43750000 </v>
   <v>       0.25000000      -0.25000000      -0.25000000 </v>
   <v>      -0.50000000      -0.25000000      -0.25000000 </v>
   <v>       0.25000000      -0.50000000       0.25000000 </v>
   <v>       0.25000000       0.25000000      -0.50000000 </v>
   <v>      -0.50000000      -0.25000000       0.25000000 </v>
   <v>      -0.50000000       0.25000000      -0.25000000 </v>
   <v>      -0.25000000      -0.25000000       0.25000000 </v>
   <v>      -0.25000000       0.25000000      -0.25000000 </v>
   <v>       0.25000000      -0.25000000      -0.50000000 </v>
   <v>       0.25000000      -0.50000000      -0.25000000 </v>
   <v>      -0.25000000      -0.25000000      -0.50000000 </v>
   <v>      -0.25000000      -0.50000000      -0.25000000 </v>
   <v>       0.25000000       0.25000000       0.25000000 </v>
   <v>      -0.50000000       0.25000000       0.25000000 </v>
   <v>      -0.25000000      -0.50000000       0.25000000 </v>
   <v>      -0.25000000       0.25000000      -0.50000000 </v>
   <v>       0.06250000      -0.43750000       0.06250000 </v>
   <v>      -0.43750000      -0.43750000       0.06250000 </v>
   <v>       0.06250000       0.06250000      -0.43750000 </v>
   <v>      -0.43750000       0.06250000      -0.43750000 </v>
   <v>      -0.43750000       0.06250000       0.06250000 </v>
   <v>       0.06250000      -0.43750000      -0.43750000 </v>
   <v>      -0.50000000      -0.50000000       0.00000000 </v>
   <v>       0.25000000      -0.50000000       0.00000000 </v>
   <v>       0.25000000       0.00000000      -0.50000000 </v>
   <v>      -0.50000000       0.00000000      -0.50000000 </v>
   <v>      -0.50000000      -0.50000000       0.25000000 </v>
   <v>       0.00000000      -0.50000000       0.25000000 </v>
   <v>       0.00000000       0.25000000      -0.50000000 </v>
   <v>      -0.50000000       0.25000000      -0.50000000 </v>
   <v>       0.00000000      -0.50000000      -0.50000000 </v>
   <v>       0.25000000      -0.50000000      -0.50000000 </v>
   <v>      -0.50000000       0.25000000       0.00000000 </v>
   <v>      -0.50000000       0.00000000       0.25000000 </v>
   <v>       0.31250000      -0.18750000      -0.43750000 </v>
   <v>      -0.43750000      -0.18750000      -0.43750000 </v>
   <v>       0.31250000      -0.43750000      -0.18750000 </v>
   <v>      -0.43750000      -0.43750000      -0.18750000 </v>
   <v>      -0.43750000      -0.43750000       0.31250000 </v>
   <v>      -0.18750000      -0.43750000       0.31250000 </v>
   <v>      -0.43750000       0.31250000      -0.43750000 </v>
   <v>      -0.18750000       0.31250000      -0.43750000 </v>
   <v>      -0.43750000      -0.18750000       0.31250000 </v>
   <v>       0.31250000      -0.43750000      -0.43750000 </v>
   <v>      -0.18750000      -0.43750000      -0.43750000 </v>
   <v>      -0.43750000       0.31250000      -0.18750000 </v>
   <v>       0.00000000      -0.25000000      -0.25000000 </v>
   <v>      -0.25000000      -0.25000000      -0.25000000 </v>
   <v>      -0.25000000      -0.25000000       0.00000000 </v>
   <v>      -0.25000000       0.00000000      -0.25000000 </v>
   <v>      -0.18750000      -0.18750000      -0.18750000 </v>
   <v>       0.31250000       0.31250000       0.31250000 </v>
   <v>      -0.50000000      -0.25000000      -0.50000000 </v>
   <v>      -0.50000000      -0.50000000      -0.25000000 </v>
   <v>      -0.25000000      -0.50000000      -0.50000000 </v>
   <v>      -0.50000000      -0.50000000      -0.50000000 </v>
   <v>      -0.43750000      -0.43750000      -0.43750000 </v>
  </varray>
 </structure>
 <varray name="primitive_index" >
  <v type="int" >        1 </v>
  <v type="int" >       66 </v>
  <v type="int" >       65 </v>
  <v type="int" >       69 </v>
  <v type="int" >       81 </v>
  <v type="int" >       13 </v>
  <v type="int" >       14 </v>
  <v type="int" >       49 </v>
  <v type="int" >       50 </v>
  <v type="int" >        2 </v>
  <v type="int" >        4 </v>
  <v type="int" >       29 </v>
  <v type="int" >       53 </v>
  <v type="int" >        5 </v>
  <v type="int" >        8 </v>
  <v type="int" >       17 </v>
  <v type="int" >       20 </v>
  <v type="int" >       78 </v>
  <v type="int" >      114 </v>
  <v type="int" >       93 </v>
  <v type="int" >       94 </v>
  <v type="int" >      117 </v>
  <v type="int" >      118 </v>
  <v type="int" >       70 </v>
  <v type="int" >       82 </v>
  <v type="int" >       72 </v>
  <v type="int" >       84 </v>
  <v type="int" >       85 </v>
  <v type="int" >       88 </v>
  <v type="int" >       62 </v>
  <v type="int" >       30 </v>
  <v type="int" >       32 </v>
  <v type="int" >       54 </v>
  <v type="int" >       56 </v>
  <v type="int" >       24 </v>
  <v type="int" >       77 </v>
  <v type="int" >       79 </v>
  <v type="int" >      113 </v>
  <v type="int" >      115 </v>
  <v type="int" >       67 </v>
  <v type="int" >       68 </v>
  <v type="int" >      109 </v>
  <v type="int" >      121 </v>
  <v type="int" >       73 </v>
  <v type="int" >       97 </v>
  <v type="int" >       76 </v>
  <v type="int" >      100 </v>
  <v type="int" >       10 </v>
  <v type="int" >       34 </v>
  <v type="int" >       61 </v>
  <v type="int" >       63 </v>
  <v type="int" >       15 </v>
  <v type="int" >       26 </v>
  <v type="int" >       37 </v>
  <v type="int" >       52 </v>
  <v type="int" >       16 </v>
  <v type="int" >       25 </v>
  <v type="int" >       38 </v>
  <v type="int" >       51 </v>
  <v type="int" >        6 </v>
  <v type="int" >        7 </v>
  <v type="int" >       18 </v>
  <v type="int" >       19 </v>
  <v type="int" >       45 </v>
  <v type="int" >       48 </v>
  <v type="int" >       57 </v>
  <v type="int" >       60 </v>
  <v type="int" >       12 </v>
  <v type="int" >       21 </v>
  <v type="int" >       23 </v>
  <v type="int" >       36 </v>
  <v type="int" >      126 </v>
  <v type="int" >      127 </v>
  <v type="int" >       90 </v>
  <v type="int" >      102 </v>
  <v type="int" >       95 </v>
  <v type="int" >      119 </v>
  <v type="int" >       96 </v>
  <v type="int" >      120 </v>
  <v type="int" >      110 </v>
  <v type="int" >      122 </v>
  <v type="int" >      112 </v>
  <v type="int" >      124 </v>
  <v type="int" >       86 </v>
  <v type="int" >       87 </v>
  <v type="int" >       92 </v>
  <v type="int" >      104 </v>
  <v type="int" >        9 </v>
  <v type="int" >       11 </v>
  <v type="int" >       33 </v>
  <v type="int" >       35 </v>
  <v type="int" >        3 </v>
  <v type="int" >       41 </v>
  <v type="int" >       75 </v>
  <v type="int" >       74 </v>
  <v type="int" >       98 </v>
  <v type="int" >       99 </v>
  <v type="int" >       91 </v>
  <v type="int" >       89 </v>
  <v type="int" >      101 </v>
  <v type="int" >      103 </v>
  <v type="int" >      105 </v>
  <v type="int" >      106 </v>
  <v type="int" >       71 </v>
  <v type="int" >       83 </v>
  <v type="int" >       46 </v>
  <v type="int" >       47 </v>
  <v type="int" >       58 </v>
  <v type="int" >       59 </v>
  <v type="int" >       27 </v>
  <v type="int" >       28 </v>
  <v type="int" >       39 </v>
  <v type="int" >       40 </v>
  <v type="int" >       31 </v>
  <v type="int" >       42 </v>
  <v type="int" >       44 </v>
  <v type="int" >       55 </v>
  <v type="int" >      125 </v>
  <v type="int" >      128 </v>
  <v type="int" >       80 </v>
  <v type="int" >      116 </v>
  <v type="int" >       64 </v>
  <v type="int" >       22 </v>
  <v type="int" >      111 </v>
  <v type="int" >      123 </v>
  <v type="int" >      108 </v>
  <v type="int" >      107 </v>
  <v type="int" >       43 </v>
 </varray>
 <kpoints>
  <generation param="Gamma">
   <v type="int" name="divisions">       1        1        1 </v>
   <v name="usershift">      0.00000000       0.00000000       0.00000000 </v>
   <v name="genvec1">      1.00000000       0.00000000       0.00000000 </v>
   <v name="genvec2">      0.00000000       1.00000000       0.00000000 </v>
   <v name="genvec3">      0.00000000       0.00000000       1.00000000 </v>
   <v name="shift">      0.00000000       0.00000000       0.00000000 </v>
  </generation>
  <varray name="kpointlist" >
   <v>       0.00000000       0.00000000       0.00000000 </v>
  </varray>
  <varray name="weights" >
   <v>       1.00000000 </v>
  </varray>
 </kpoints>
 <parameters>
  <separator name="general" >
   <i type="string" name="SYSTEM">unknown system</i>
   <i type="logical" name="LCOMPAT"> F  </i>
  </separator>
  <separator name="electronic" >
   <i type="string" name="PREC">accura</i>
   <i name="ENMAX">    500.00000000</i>
   <i name="ENAUG">    322.06900000</i>
   <i name="EDIFF">      0.00000001</i>
   <i type="int" name="IALGO">    38</i>
   <i type="int" name="IWAVPR">    10</i>
   <i type="int" name="NBANDS">   322</i>
   <i name="NELECT">    512.00000000</i>
   <i type="int" name="TURBO">     0</i>
   <i type="int" name="IRESTART">     0</i>
   <i type="int" name="NREBOOT">     0</i>
   <i type="int" name="NMIN">     0</i>
   <i name="EREF">      0.00000000</i>
   <separator name="electronic smearing" >
    <i type="int" name="ISMEAR">     0</i>
    <i name="SIGMA">      0.05000000</i>
    <i name="KSPACING">      0.50000000</i>
    <i type="logical" name="KGAMMA"> T  </i>
   </separator>
   <separator name="electronic projectors" >
    <i type="logical" name="LREAL"> F  </i>
    <v name="ROPT">      0.00000000</v>
    <i type="int" name="LMAXPAW">  -100</i>
    <i type="int" name="LMAXMIX">     2</i>
    <i type="logical" name="NLSPLINE"> F  </i>
   </separator>
   <separator name="electronic startup" >
    <i type="int" name="ISTART">     0</i>
    <i type="int" name="ICHARG">     2</i>
    <i type="int" name="INIWAV">     1</i>
   </separator>
   <separator name="electronic spin" >
    <i type="int" name="ISPIN">     1</i>
    <i type="logical" name="LNONCOLLINEAR"> F  </i>
    <v name="MAGMOM">      1.00000000      1.00000000      1.00000000      1.00000000      1.00000000      1.00000000      1.00000000      1.00000000      1.00000000      1.00000000      1.00000000      1.00000000      1.00000000      1.00000000      1.00000000      1.00000000      1.00000000      1.00000000      1.00000000      1.00000000
      1.00000000      1.00000000      1.00000000      1.00000000      1.00000000      1.00000000      1.00000000      1.00000000      1.00000000      1.00000000      1.00000000      1.00000000      1.00000000      1.00000000      1.00000000      1.00000000      1.00000000      1.00000000      1.00000000      1.00000000
      1.00000000      1.00000000      1.00000000      1.00000000      1.00000000      1.00000000      1.00000000      1.00000000      1.00000000      1.00000000      1.00000000      1.00000000      1.00000000      1.00000000      1.00000000      1.00000000      1.00000000      1.00000000      1.00000000      1.00000000
      1.00000000      1.00000000      1.00000000      1.00000000      1.00000000      1.00000000      1.00000000      1.00000000      1.00000000      1.00000000      1.00000000      1.00000000      1.00000000      1.00000000      1.00000000      1.00000000      1.00000000      1.00000000      1.00000000      1.00000000
      1.00000000      1.00000000      1.00000000      1.00000000      1.00000000      1.00000000      1.00000000      1.00000000      1.00000000      1.00000000      1.00000000      1.00000000      1.00000000      1.00000000      1.00000000      1.00000000      1.00000000      1.00000000      1.00000000      1.00000000
      1.00000000      1.00000000      1.00000000      1.00000000      1.00000000      1.00000000      1.00000000      1.00000000      1.00000000      1.00000000      1.00000000      1.00000000      1.00000000      1.00000000      1.00000000      1.00000000      1.00000000      1.00000000      1.00000000      1.00000000
      1.00000000      1.00000000      1.00000000      1.00000000      1.00000000      1.00000000      1.00000000      1.00000000</v>
    <i name="NUPDOWN">     -1.00000000</i>
    <i type="logical" name="LSORBIT"> F  </i>
    <v name="SAXIS">      0.00000000      0.00000000      1.00000000</v>
    <i type="logical" name="LSPIRAL"> F  </i>
    <v name="QSPIRAL">      0.00000000      0.00000000      0.00000000</v>
    <i type="logical" name="LZEROZ"> F  </i>
   </separator>
   <separator name="electronic exchange-correlation" >
    <i type="logical" name="LASPH"> F  </i>
    <i type="logical" name="LMETAGGA"> F  </i>
   </separator>
   <separator name="electronic convergence" >
    <i type="int" name="NELM">    60</i>
    <i type="int" name="NELMDL">    -5</i>
    <i type="int" name="NELMIN">     2</i>
    <i name="ENINI">    500.00000000</i>
    <separator name="electronic convergence detail" >
     <i type="logical" name="LDIAG"> T  </i>
     <i type="logical" name="LSUBROT"> F  </i>
     <i name="WEIMIN">      0.00000000</i>
     <i name="EBREAK">      0.00000000</i>
     <i name="DEPER">      0.30000000</i>
     <i type="int" name="NRMM">     4</i>
     <i name="TIME">      0.40000000</i>
    </separator>
   </separator>
   <separator name="electronic mixer" >
    <i name="AMIX">      0.40000000</i>
    <i name="BMIX">      1.00000000</i>
    <i name="AMIN">      0.10000000</i>
    <i name="AMIX_MAG">      1.60000000</i>
    <i name="BMIX_MAG">      1.00000000</i>
    <separator name="electronic mixer details" >
     <i type="int" name="IMIX">     4</i>
     <i type="logical" name="MIXFIRST"> F  </i>
     <i type="int" name="MAXMIX">   -45</i>
     <i name="WC">    100.00000000</i>
     <i type="int" name="INIMIX">     1</i>
     <i type="int" name="MIXPRE">     1</i>
     <i type="int" name="MREMOVE">     5</i>
    </separator>
   </separator>
   <separator name="electronic dipolcorrection" >
    <i type="logical" name="LDIPOL"> F  </i>
    <i type="logical" name="LMONO"> F  </i>
    <i type="int" name="IDIPOL">     0</i>
    <i name="EPSILON">      1.00000000</i>
    <v name="DIPOL">   -100.00000000   -100.00000000   -100.00000000</v>
    <i name="EFIELD">      0.00000000</i>
   </separator>
  </separator>
  <separator name="grids" >
   <i type="int" name="NGX">   120</i>
   <i type="int" name="NGY">   120</i>
   <i type="int" name="NGZ">   120</i>
   <i type="int" name="NGXF">   240</i>
   <i type="int" name="NGYF">   240</i>
   <i type="int" name="NGZF">   240</i>
   <i type="logical" name="ADDGRID"> T  </i>
  </separator>
  <separator name="ionic" >
   <i type="int" name="NSW">     0</i>
   <i type="int" name="IBRION">    -1</i>
   <i type="int" name="MDALGO">     0</i>
   <i type="int" name="ISIF">     2</i>
   <i name="PSTRESS">      0.00000000</i>
   <i name="EDIFFG">      0.00000010</i>
   <i type="int" name="NFREE">     0</i>
   <i name="POTIM">      0.50000000</i>
   <i name="SMASS">     -3.00000000</i>
   <i name="SCALEE">      1.00000000</i>
  </separator>
  <separator name="ionic md" >
   <i name="TEBEG">      0.00010000</i>
   <i name="TEEND">      0.00010000</i>
   <i type="int" name="NBLOCK">     1</i>
   <i type="int" name="KBLOCK">     1</i>
   <i type="int" name="NPACO">   256</i>
   <i name="APACO">     16.00000000</i>
  </separator>
  <separator name="symmetry" >
   <i type="int" name="ISYM">     2</i>
   <i name="SYMPREC">      0.00001000</i>
  </separator>
  <separator name="dos" >
   <i type="int" name="LORBIT">     0</i>
   <v name="RWIGS">     -1.00000000</v>
   <i type="int" name="NEDOS">   301</i>
   <i name="EMIN">     10.00000000</i>
   <i name="EMAX">    -10.00000000</i>
   <i name="EFERMI">      0.00000000</i>
  </separator>
  <separator name="writing" >
   <i type="int" name="NWRITE">     2</i>
   <i type="logical" name="LWAVE"> F  </i>
   <i type="logical" name="LDOWNSAMPLE"> F  </i>
   <i type="logical" name="LCHARG"> F  </i>
   <i type="logical" name="LPARD"> F  </i>
   <i type="logical" name="LVTOT"> F  </i>
   <i type="logical" name="LVHAR"> F  </i>
   <i type="logical" name="LELF"> F  </i>
   <i type="logical" name="LOPTICS"> F  </i>
   <v name="STM">      0.00000000      0.00000000      0.00000000      0.00000000      0.00000000      0.00000000      0.00000000</v>
  </separator>
  <separator name="performance" >
   <i type="int" name="NPAR">     2</i>
   <i type="int" name="NSIM">     4</i>
   <i type="int" name="NBLK">    -1</i>
   <i type="logical" name="LPLANE"> T  </i>
   <i type="logical" name="LSCALAPACK"> T  </i>
   <i type="logical" name="LSCAAWARE"> F  </i>
   <i type="logical" name="LSCALU"> F  </i>
   <i type="logical" name="LASYNC"> F  </i>
   <i type="logical" name="LORBITALREAL"> F  </i>
  </separator>
  <separator name="miscellaneous" >
   <i type="int" name="IDIOT">     3</i>
   <i type="int" name="ISPECIAL">     0</i>
   <i type="logical" name="LMUSIC"> F  </i>
   <v name="POMASS">     28.08500000</v>
   <v name="DARWINR">      0.00000000</v>
   <v name="DARWINV">      1.00000000</v>
   <i type="logical" name="LCORR"> T  </i>
  </separator>
  <i type="logical" name="GGA_COMPAT"> T  </i>
  <i type="logical" name="LBERRY"> F  </i>
  <i type="int" name="ICORELEVEL">     0</i>
  <i type="logical" name="LDAU"> F  </i>
  <i type="int" name="I_CONSTRAINED_M">     0</i>
  <separator name="electronic exchange-correlation" >
   <i type="string" name="GGA">--</i>
   <i type="int" name="VOSKOWN">     0</i>
   <i type="logical" name="LHFCALC"> F  </i>
   <i type="string" name="PRECFOCK"></i>
   <i type="logical" name="LSYMGRAD"> F  </i>
   <i type="logical" name="LHFONE"> F  </i>
   <i type="logical" name="LRHFCALC"> F  </i>
   <i type="logical" name="LTHOMAS"> F  </i>
   <i type="logical" name="LMODELHF"> F  </i>
   <i name="ENCUT4O">     -1.00000000</i>
   <i type="int" name="EXXOEP">     0</i>
   <i type="int" name="FOURORBIT">     0</i>
   <i name="AEXX">      0.00000000</i>
   <i name="HFALPHA">      0.00000000</i>
   <i name="MCALPHA">      0.00000000</i>
   <i name="ALDAX">      1.00000000</i>
   <i name="AGGAX">      1.00000000</i>
   <i name="ALDAC">      1.00000000</i>
   <i name="AGGAC">      1.00000000</i>
   <i type="int" name="NKREDX">     1</i>
   <i type="int" name="NKREDY">     1</i>
   <i type="int" name="NKREDZ">     1</i>
   <i type="logical" name="SHIFTRED"> F  </i>
   <i type="logical" name="ODDONLY"> F  </i>
   <i type="logical" name="EVENONLY"> F  </i>
   <i type="int" name="LMAXFOCK">     0</i>
   <i type="int" name="NMAXFOCKAE">     0</i>
   <i type="logical" name="LFOCKAEDFT"> F  </i>
   <i name="HFSCREEN">      0.00000000</i>
   <i name="HFSCREENC">      0.00000000</i>
   <i type="int" name="NBANDSGWLOW">     0</i>
  </separator>
  <separator name="vdW DFT" >
   <i type="logical" name="LUSE_VDW"> F  </i>
   <i name="Zab_VDW">     -0.84910000</i>
   <i name="PARAM1">      0.12340000</i>
   <i name="PARAM2">      1.00000000</i>
   <i name="PARAM3">      0.00000000</i>
  </separator>
  <separator name="model GW" >
   <i type="int" name="MODEL_GW">     0</i>
   <i name="MODEL_EPS0">     12.26549432</i>
   <i name="MODEL_ALPHA">      1.00000000</i>
  </separator>
  <separator name="linear response parameters" >
   <i type="logical" name="LEPSILON"> F  </i>
   <i type="logical" name="LRPA"> F  </i>
   <i type="logical" name="LNABLA"> F  </i>
   <i type="logical" name="LVEL"> F  </i>
   <i type="int" name="KINTER">     0</i>
   <i name="CSHIFT">      0.10000000</i>
   <i name="OMEGAMAX">     -1.00000000</i>
   <i name="DEG_THRESHOLD">      0.00200000</i>
   <i name="RTIME">     -0.10000000</i>
   <i name="WPLASMAI">      0.00000000</i>
   <v name="DFIELD">      0.00000000      0.00000000      0.00000000</v>
   <v name="WPLASMA">      0.00000000      0.00000000      0.00000000      0.00000000      0.00000000      0.00000000      0.00000000      0.00000000      0.00000000</v>
  </separator>
  <separator name="orbital magnetization" >
   <i type="logical" name="NUCIND"> F  </i>
   <v name="MAGPOS">      0.00000000      0.00000000      0.00000000</v>
   <i type="logical" name="LNICSALL"> T  </i>
   <i type="logical" name="ORBITALMAG"> F  </i>
   <i type="logical" name="LMAGBLOCH"> F  </i>
   <i type="logical" name="LCHIMAG"> F  </i>
   <i type="logical" name="LGAUGE"> T  </i>
   <i type="int" name="MAGATOM">     0</i>
   <v name="MAGDIPOL">      0.00000000      0.00000000      0.00000000</v>
   <v name="AVECCONST">      0.00000000      0.00000000      0.00000000</v>
  </separator>
  <separator name="response functions" >
   <i type="logical" name="LADDER"> F  </i>
   <i type="logical" name="LRPAFORCE"> F  </i>
   <i type="logical" name="LFXC"> F  </i>
   <i type="logical" name="LHARTREE"> T  </i>
   <i type="int" name="IBSE">     0</i>
   <v type="int" name="KPOINT">    -1     0     0     0</v>
   <i type="logical" name="LTCTE"> F  </i>
   <i type="logical" name="LTETE"> F  </i>
   <i type="logical" name="LTRIPLET"> F  </i>
   <i type="logical" name="LFXCEPS"> F  </i>
   <i type="logical" name="LFXHEG"> F  </i>
   <i type="int" name="NATURALO">     2</i>
   <i type="logical" name="L2ORDER"> F  </i>
   <i type="logical" name="LMP2LT"> F  </i>
   <i type="logical" name="LUSEW"> F  </i>
   <i name="ENCUTGW">     -2.00000000</i>
   <i name="ENCUTGWSOFT">     -2.00000000</i>
   <i name="ENCUTLF">     -1.00000000</i>
   <i type="int" name="LMAXMP2">    -1</i>
   <i name="SCISSOR">      0.00000000</i>
   <i type="int" name="NOMEGA">     0</i>
   <i type="int" name="NOMEGAR">     0</i>
   <i type="int" name="NBANDSGW">    -1</i>
   <i type="int" name="NBANDSO">    -1</i>
   <i type="int" name="NBANDSV">    -1</i>
   <i type="int" name="NELM">     1</i>
   <i type="int" name="NELMHF">     1</i>
   <i type="int" name="DIM">     3</i>
   <i type="int" name="ANTIRES">     0</i>
   <i name="OMEGAMAX">    -30.00000000</i>
   <i name="OMEGAMIN">    -30.00000000</i>
   <i name="OMEGATL">   -200.00000000</i>
   <i type="int" name="OMEGAGRID">   140</i>
   <i name="CSHIFT">     -0.10000000</i>
   <i type="logical" name="SELFENERGY"> F  </i>
   <i type="logical" name="LSPECTRAL"> F  </i>
   <i type="logical" name="LSPECTRALGW"> F  </i>
   <i type="logical" name="LSINGLES"> F  </i>
   <i type="logical" name="LFERMIGW"> F  </i>
   <i type="logical" name="ODDONLYGW"> F  </i>
   <i type="logical" name="EVENONLYGW"> F  </i>
   <i type="int" name="NKREDLFX">     1</i>
   <i type="int" name="NKREDLFY">     1</i>
   <i type="int" name="NKREDLFZ">     1</i>
   <i type="int" name="MAXMEM">  2800</i>
   <i type="int" name="TELESCOPE">     0</i>
   <i type="int" name="TAUPAR">     1</i>
   <i type="int" name="OMEGAPAR">    -1</i>
   <i name="LAMBDA">      1.00000000</i>
  </separator>
  <separator name="External order field" >
   <i name="OFIELD_KAPPA">      0.00000000</i>
   <v name="OFIELD_K">      0.00000000      0.00000000      0.00000000</v>
   <i name="OFIELD_Q6_NEAR">      0.00000000</i>
   <i name="OFIELD_Q6_FAR">      0.00000000</i>
   <i name="OFIELD_A">      0.00000000</i>
  </separator>
 </parameters>
 <atominfo>
  <atoms>     128 </atoms>
  <types>       1 </types>
  <array name="atoms" >
   <dimension dim="1">ion</dimension>
   <field type="string">element</field>
   <field type="int">atomtype</field>
   <set>
    <rc><c>Si</c><c>   1</c></rc>
    <rc><c>Si</c><c>   1</c></rc>
    <rc><c>Si</c><c>   1</c></rc>
    <rc><c>Si</c><c>   1</c></rc>
    <rc><c>Si</c><c>   1</c></rc>
    <rc><c>Si</c><c>   1</c></rc>
    <rc><c>Si</c><c>   1</c></rc>
    <rc><c>Si</c><c>   1</c></rc>
    <rc><c>Si</c><c>   1</c></rc>
    <rc><c>Si</c><c>   1</c></rc>
    <rc><c>Si</c><c>   1</c></rc>
    <rc><c>Si</c><c>   1</c></rc>
    <rc><c>Si</c><c>   1</c></rc>
    <rc><c>Si</c><c>   1</c></rc>
    <rc><c>Si</c><c>   1</c></rc>
    <rc><c>Si</c><c>   1</c></rc>
    <rc><c>Si</c><c>   1</c></rc>
    <rc><c>Si</c><c>   1</c></rc>
    <rc><c>Si</c><c>   1</c></rc>
    <rc><c>Si</c><c>   1</c></rc>
    <rc><c>Si</c><c>   1</c></rc>
    <rc><c>Si</c><c>   1</c></rc>
    <rc><c>Si</c><c>   1</c></rc>
    <rc><c>Si</c><c>   1</c></rc>
    <rc><c>Si</c><c>   1</c></rc>
    <rc><c>Si</c><c>   1</c></rc>
    <rc><c>Si</c><c>   1</c></rc>
    <rc><c>Si</c><c>   1</c></rc>
    <rc><c>Si</c><c>   1</c></rc>
    <rc><c>Si</c><c>   1</c></rc>
    <rc><c>Si</c><c>   1</c></rc>
    <rc><c>Si</c><c>   1</c></rc>
    <rc><c>Si</c><c>   1</c></rc>
    <rc><c>Si</c><c>   1</c></rc>
    <rc><c>Si</c><c>   1</c></rc>
    <rc><c>Si</c><c>   1</c></rc>
    <rc><c>Si</c><c>   1</c></rc>
    <rc><c>Si</c><c>   1</c></rc>
    <rc><c>Si</c><c>   1</c></rc>
    <rc><c>Si</c><c>   1</c></rc>
    <rc><c>Si</c><c>   1</c></rc>
    <rc><c>Si</c><c>   1</c></rc>
    <rc><c>Si</c><c>   1</c></rc>
    <rc><c>Si</c><c>   1</c></rc>
    <rc><c>Si</c><c>   1</c></rc>
    <rc><c>Si</c><c>   1</c></rc>
    <rc><c>Si</c><c>   1</c></rc>
    <rc><c>Si</c><c>   1</c></rc>
    <rc><c>Si</c><c>   1</c></rc>
    <rc><c>Si</c><c>   1</c></rc>
    <rc><c>Si</c><c>   1</c></rc>
    <rc><c>Si</c><c>   1</c></rc>
    <rc><c>Si</c><c>   1</c></rc>
    <rc><c>Si</c><c>   1</c></rc>
    <rc><c>Si</c><c>   1</c></rc>
    <rc><c>Si</c><c>   1</c></rc>
    <rc><c>Si</c><c>   1</c></rc>
    <rc><c>Si</c><c>   1</c></rc>
    <rc><c>Si</c><c>   1</c></rc>
    <rc><c>Si</c><c>   1</c></rc>
    <rc><c>Si</c><c>   1</c></rc>
    <rc><c>Si</c><c>   1</c></rc>
    <rc><c>Si</c><c>   1</c></rc>
    <rc><c>Si</c><c>   1</c></rc>
    <rc><c>Si</c><c>   1</c></rc>
    <rc><c>Si</c><c>   1</c></rc>
    <rc><c>Si</c><c>   1</c></rc>
    <rc><c>Si</c><c>   1</c></rc>
    <rc><c>Si</c><c>   1</c></rc>
    <rc><c>Si</c><c>   1</c></rc>
    <rc><c>Si</c><c>   1</c></rc>
    <rc><c>Si</c><c>   1</c></rc>
    <rc><c>Si</c><c>   1</c></rc>
    <rc><c>Si</c><c>   1</c></rc>
    <rc><c>Si</c><c>   1</c></rc>
    <rc><c>Si</c><c>   1</c></rc>
    <rc><c>Si</c><c>   1</c></rc>
    <rc><c>Si</c><c>   1</c></rc>
    <rc><c>Si</c><c>   1</c></rc>
    <rc><c>Si</c><c>   1</c></rc>
    <rc><c>Si</c><c>   1</c></rc>
    <rc><c>Si</c><c>   1</c></rc>
    <rc><c>Si</c><c>   1</c></rc>
    <rc><c>Si</c><c>   1</c></rc>
    <rc><c>Si</c><c>   1</c></rc>
    <rc><c>Si</c><c>   1</c></rc>
    <rc><c>Si</c><c>   1</c></rc>
    <rc><c>Si</c><c>   1</c></rc>
    <rc><c>Si</c><c>   1</c></rc>
    <rc><c>Si</c><c>   1</c></rc>
    <rc><c>Si</c><c>   1</c></rc>
    <rc><c>Si</c><c>   1</c></rc>
    <rc><c>Si</c><c>   1</c></rc>
    <rc><c>Si</c><c>   1</c></rc>
    <rc><c>Si</c><c>   1</c></rc>
    <rc><c>Si</c><c>   1</c></rc>
    <rc><c>Si</c><c>   1</c></rc>
    <rc><c>Si</c><c>   1</c></rc>
    <rc><c>Si</c><c>   1</c></rc>
    <rc><c>Si</c><c>   1</c></rc>
    <rc><c>Si</c><c>   1</c></rc>
    <rc><c>Si</c><c>   1</c></rc>
    <rc><c>Si</c><c>   1</c></rc>
    <rc><c>Si</c><c>   1</c></rc>
    <rc><c>Si</c><c>   1</c></rc>
    <rc><c>Si</c><c>   1</c></rc>
    <rc><c>Si</c><c>   1</c></rc>
    <rc><c>Si</c><c>   1</c></rc>
    <rc><c>Si</c><c>   1</c></rc>
    <rc><c>Si</c><c>   1</c></rc>
    <rc><c>Si</c><c>   1</c></rc>
    <rc><c>Si</c><c>   1</c></rc>
    <rc><c>Si</c><c>   1</c></rc>
    <rc><c>Si</c><c>   1</c></rc>
    <rc><c>Si</c><c>   1</c></rc>
    <rc><c>Si</c><c>   1</c></rc>
    <rc><c>Si</c><c>   1</c></rc>
    <rc><c>Si</c><c>   1</c></rc>
    <rc><c>Si</c><c>   1</c></rc>
    <rc><c>Si</c><c>   1</c></rc>
    <rc><c>Si</c><c>   1</c></rc>
    <rc><c>Si</c><c>   1</c></rc>
    <rc><c>Si</c><c>   1</c></rc>
    <rc><c>Si</c><c>   1</c></rc>
    <rc><c>Si</c><c>   1</c></rc>
    <rc><c>Si</c><c>   1</c></rc>
    <rc><c>Si</c><c>   1</c></rc>
    <rc><c>Si</c><c>   1</c></rc>
   </set>
  </array>
  <array name="atomtypes" >
   <dimension dim="1">type</dimension>
   <field type="int">atomspertype</field>
   <field type="string">element</field>
   <field>mass</field>
   <field>valence</field>
   <field type="string">pseudopotential</field>
   <set>
    <rc><c> 128</c><c>Si</c><c>     28.08500000</c><c>      4.00000000</c><c> PAW_PBE Si 05Jan2001                   </c></rc>
   </set>
  </array>
 </atominfo>
 <structure name="initialpos" >
  <crystal>
   <varray name="basis" >
    <v>       0.00000000      10.93716070      10.93716070 </v>
    <v>      10.93716070       0.00000000      10.93716070 </v>
    <v>      10.93716070      10.93716070       0.00000000 </v>
   </varray>
   <i name="volume">   2616.63878844 </i>
   <varray name="rec_basis" >
    <v>      -0.04571570       0.04571570       0.04571570 </v>
    <v>       0.04571570      -0.04571570       0.04571570 </v>
    <v>       0.04571570       0.04571570      -0.04571570 </v>
   </varray>
  </crystal>
  <varray name="positions" >
   <v>       0.06295716       0.06204284       0.06204284 </v>
   <v>       0.31250000       0.06250000       0.06250000 </v>
   <v>       0.56250000       0.06250000       0.06250000 </v>
   <v>       0.81250000       0.06250000       0.06250000 </v>
   <v>       0.06250000       0.31250000       0.06250000 </v>
   <v>       0.31250000       0.31250000       0.06250000 </v>
   <v>       0.56250000       0.31250000       0.06250000 </v>
   <v>       0.81250000       0.31250000       0.06250000 </v>
   <v>       0.06250000       0.56250000       0.06250000 </v>
   <v>       0.31250000       0.56250000       0.06250000 </v>
   <v>       0.56250000       0.56250000       0.06250000 </v>
   <v>       0.81250000       0.56250000       0.06250000 </v>
   <v>       0.06250000       0.81250000       0.06250000 </v>
   <v>       0.31250000       0.81250000       0.06250000 </v>
   <v>       0.56250000       0.81250000       0.06250000 </v>
   <v>       0.81250000       0.81250000       0.06250000 </v>
   <v>       0.06250000       0.06250000       0.31250000 </v>
   <v>       0.31250000       0.06250000       0.31250000 </v>
   <v>       0.56250000       0.06250000       0.31250000 </v>
   <v>       0.81250000       0.06250000       0.31250000 </v>
   <v>       0.06250000       0.31250000       0.31250000 </v>
   <v>       0.31250000       0.31250000       0.31250000 </v>
   <v>       0.56250000       0.31250000       0.31250000 </v>
   <v>       0.81250000       0.31250000       0.31250000 </v>
   <v>       0.06250000       0.56250000       0.31250000 </v>
   <v>       0.31250000       0.56250000       0.31250000 </v>
   <v>       0.56250000       0.56250000       0.31250000 </v>
   <v>       0.81250000       0.56250000       0.31250000 </v>
   <v>       0.06250000       0.81250000       0.31250000 </v>
   <v>       0.31250000       0.81250000       0.31250000 </v>
   <v>       0.56250000       0.81250000       0.31250000 </v>
   <v>       0.81250000       0.81250000       0.31250000 </v>
   <v>       0.06250000       0.06250000       0.56250000 </v>
   <v>       0.31250000       0.06250000       0.56250000 </v>
   <v>       0.56250000       0.06250000       0.56250000 </v>
   <v>       0.81250000       0.06250000       0.56250000 </v>
   <v>       0.06250000       0.31250000       0.56250000 </v>
   <v>       0.31250000       0.31250000       0.56250000 </v>
   <v>       0.56250000       0.31250000       0.56250000 </v>
   <v>       0.81250000       0.31250000       0.56250000 </v>
   <v>       0.06250000       0.56250000       0.56250000 </v>
   <v>       0.31250000       0.56250000       0.56250000 </v>
   <v>       0.56250000       0.56250000       0.56250000 </v>
   <v>       0.81250000       0.56250000       0.56250000 </v>
   <v>       0.06250000       0.81250000       0.56250000 </v>
   <v>       0.31250000       0.81250000       0.56250000 </v>
   <v>       0.56250000       0.81250000       0.56250000 </v>
   <v>       0.81250000       0.81250000       0.56250000 </v>
   <v>       0.06250000       0.06250000       0.81250000 </v>
   <v>       0.31250000       0.06250000       0.81250000 </v>
   <v>       0.56250000       0.06250000       0.81250000 </v>
   <v>       0.81250000       0.06250000       0.81250000 </v>
   <v>       0.06250000       0.31250000       0.81250000 </v>
   <v>       0.31250000       0.31250000       0.81250000 </v>
   <v>       0.56250000       0.31250000       0.81250000 </v>
   <v>       0.81250000       0.31250000       0.81250000 </v>
   <v>       0.06250000       0.56250000       0.81250000 </v>
   <v>       0.31250000       0.56250000       0.81250000 </v>
   <v>       0.56250000       0.56250000       0.81250000 </v>
   <v>       0.81250000       0.56250000       0.81250000 </v>
   <v>       0.06250000       0.81250000       0.81250000 </v>
   <v>       0.31250000       0.81250000       0.81250000 </v>
   <v>       0.56250000       0.81250000       0.81250000 </v>
   <v>       0.81250000       0.81250000       0.81250000 </v>
   <v>       0.00000000       0.00000000       0.00000000 </v>
   <v>       0.25000000       0.00000000       0.00000000 </v>
   <v>       0.50000000       0.00000000       0.00000000 </v>
   <v>       0.75000000       0.00000000       0.00000000 </v>
   <v>       0.00000000       0.25000000       0.00000000 </v>
   <v>       0.25000000       0.25000000       0.00000000 </v>
   <v>       0.50000000       0.25000000       0.00000000 </v>
   <v>       0.75000000       0.25000000       0.00000000 </v>
   <v>       0.00000000       0.50000000       0.00000000 </v>
   <v>       0.25000000       0.50000000       0.00000000 </v>
   <v>       0.50000000       0.50000000       0.00000000 </v>
   <v>       0.75000000       0.50000000       0.00000000 </v>
   <v>       0.00000000       0.75000000       0.00000000 </v>
   <v>       0.25000000       0.75000000       0.00000000 </v>
   <v>       0.50000000       0.75000000       0.00000000 </v>
   <v>       0.75000000       0.75000000       0.00000000 </v>
   <v>       0.00000000       0.00000000       0.25000000 </v>
   <v>       0.25000000       0.00000000       0.25000000 </v>
   <v>       0.50000000       0.00000000       0.25000000 </v>
   <v>       0.75000000       0.00000000       0.25000000 </v>
   <v>       0.00000000       0.25000000       0.25000000 </v>
   <v>       0.25000000       0.25000000       0.25000000 </v>
   <v>       0.50000000       0.25000000       0.25000000 </v>
   <v>       0.75000000       0.25000000       0.25000000 </v>
   <v>       0.00000000       0.50000000       0.25000000 </v>
   <v>       0.25000000       0.50000000       0.25000000 </v>
   <v>       0.50000000       0.50000000       0.25000000 </v>
   <v>       0.75000000       0.50000000       0.25000000 </v>
   <v>       0.00000000       0.75000000       0.25000000 </v>
   <v>       0.25000000       0.75000000       0.25000000 </v>
   <v>       0.50000000       0.75000000       0.25000000 </v>
   <v>       0.75000000       0.75000000       0.25000000 </v>
   <v>       0.00000000       0.00000000       0.50000000 </v>
   <v>       0.25000000       0.00000000       0.50000000 </v>
   <v>       0.50000000       0.00000000       0.50000000 </v>
   <v>       0.75000000       0.00000000       0.50000000 </v>
   <v>       0.00000000       0.25000000       0.50000000 </v>
   <v>       0.25000000       0.25000000       0.50000000 </v>
   <v>       0.50000000       0.25000000       0.50000000 </v>
   <v>       0.75000000       0.25000000       0.50000000 </v>
   <v>       0.00000000       0.50000000       0.50000000 </v>
   <v>       0.25000000       0.50000000       0.50000000 </v>
   <v>       0.50000000       0.50000000       0.50000000 </v>
   <v>       0.75000000       0.50000000       0.50000000 </v>
   <v>       0.00000000       0.75000000       0.50000000 </v>
   <v>       0.25000000       0.75000000       0.50000000 </v>
   <v>       0.50000000       0.75000000       0.50000000 </v>
   <v>       0.75000000       0.75000000       0.50000000 </v>
   <v>       0.00000000       0.00000000       0.75000000 </v>
   <v>       0.25000000       0.00000000       0.75000000 </v>
   <v>       0.50000000       0.00000000       0.75000000 </v>
   <v>       0.75000000       0.00000000       0.75000000 </v>
   <v>       0.00000000       0.25000000       0.75000000 </v>
   <v>       0.25000000       0.25000000       0.75000000 </v>
   <v>       0.50000000       0.25000000       0.75000000 </v>
   <v>       0.75000000       0.25000000       0.75000000 </v>
   <v>       0.00000000       0.50000000       0.75000000 </v>
   <v>       0.25000000       0.50000000       0.75000000 </v>
   <v>       0.50000000       0.50000000       0.75000000 </v>
   <v>       0.75000000       0.50000000       0.75000000 </v>
   <v>       0.00000000       0.75000000       0.75000000 </v>
   <v>       0.25000000       0.75000000       0.75000000 </v>
   <v>       0.50000000       0.75000000       0.75000000 </v>
   <v>       0.75000000       0.75000000       0.75000000 </v>
  </varray>
 </structure>
 <calculation>
  <scstep>
   <time name="dav">    4.76    4.77</time>
   <time name="total">    5.27    5.29</time>
   <energy>
    <i name="alphaZ">    210.78028765 </i>
    <i name="ewald"> -14524.86756189 </i>
    <i name="hartreedc">   -724.61925007 </i>
    <i name="XCdc">  -1195.83150722 </i>
    <i name="pawpsdc">   4221.13331941 </i>
    <i name="pawaedc">  -1969.18571412 </i>
    <i name="eentropy">     -0.01589829 </i>
    <i name="bandstr">   2165.00846746 </i>
    <i name="atom">  13192.48085998 </i>
    <i name="e_fr_energy">   1374.88300291 </i>
    <i name="e_wo_entrp">   1374.89890120 </i>
    <i name="e_0_energy">   1374.89095206 </i>
   </energy>
  </scstep>
  <scstep>
   <time name="dav">    5.39    5.40</time>
   <time name="total">    5.39    5.40</time>
   <energy>
    <i name="e_fr_energy">   -537.02017309 </i>
    <i name="e_wo_entrp">   -537.02017111 </i>
    <i name="e_0_energy">   -537.02017210 </i>
   </energy>
  </scstep>
  <scstep>
   <time name="dav">    5.45    5.47</time>
   <time name="total">    5.45    5.47</time>
   <energy>
    <i name="e_fr_energy">   -690.02425872 </i>
    <i name="e_wo_entrp">   -690.02425872 </i>
    <i name="e_0_energy">   -690.02425872 </i>
   </energy>
  </scstep>
  <scstep>
   <time name="dav">    5.34    5.36</time>
   <time name="total">    5.34    5.36</time>
   <energy>
    <i name="e_fr_energy">   -694.53388456 </i>
    <i name="e_wo_entrp">   -694.53388456 </i>
    <i name="e_0_energy">   -694.53388456 </i>
   </energy>
  </scstep>
  <scstep>
   <time name="dav">    5.36    5.37</time>
   <time name="total">    6.04    6.05</time>
   <energy>
    <i name="e_fr_energy">   -694.69940228 </i>
    <i name="e_wo_entrp">   -694.69940228 </i>
    <i name="e_0_energy">   -694.69940228 </i>
   </energy>
  </scstep>
  <scstep>
   <time name="dav">    5.00    5.01</time>
   <time name="total">    6.16    6.18</time>
   <energy>
    <i name="e_fr_energy">   -686.30056896 </i>
    <i name="e_wo_entrp">   -686.30056896 </i>
    <i name="e_0_energy">   -686.30056896 </i>
   </energy>
  </scstep>
  <scstep>
   <time name="dav">    4.91    4.92</time>
   <time name="total">    6.07    6.09</time>
   <energy>
    <i name="e_fr_energy">   -682.42764706 </i>
    <i name="e_wo_entrp">   -682.42764706 </i>
    <i name="e_0_energy">   -682.42764706 </i>
   </energy>
  </scstep>
  <scstep>
   <time name="dav">    5.02    5.03</time>
   <time name="total">    6.19    6.20</time>
   <energy>
    <i name="e_fr_energy">   -682.55975235 </i>
    <i name="e_wo_entrp">   -682.55975235 </i>
    <i name="e_0_energy">   -682.55975235 </i>
   </energy>
  </scstep>
  <scstep>
   <time name="dav">    5.44    5.45</time>
   <time name="total">    6.60    6.62</time>
   <energy>
    <i name="e_fr_energy">   -682.56615359 </i>
    <i name="e_wo_entrp">   -682.56615359 </i>
    <i name="e_0_energy">   -682.56615359 </i>
   </energy>
  </scstep>
  <scstep>
   <time name="dav">    4.97    4.98</time>
   <time name="total">    6.13    6.15</time>
   <energy>
    <i name="e_fr_energy">   -682.56883383 </i>
    <i name="e_wo_entrp">   -682.56883383 </i>
    <i name="e_0_energy">   -682.56883383 </i>
   </energy>
  </scstep>
  <scstep>
   <time name="dav">    5.35    5.36</time>
   <time name="total">    6.51    6.53</time>
   <energy>
    <i name="e_fr_energy">   -682.56884700 </i>
    <i name="e_wo_entrp">   -682.56884700 </i>
    <i name="e_0_energy">   -682.56884700 </i>
   </energy>
  </scstep>
  <scstep>
   <time name="dav">    5.31    5.33</time>
   <time name="total">    6.48    6.49</time>
   <energy>
    <i name="e_fr_energy">   -682.56885314 </i>
    <i name="e_wo_entrp">   -682.56885314 </i>
    <i name="e_0_energy">   -682.56885314 </i>
   </energy>
  </scstep>
  <scstep>
   <time name="dav">    5.30    5.32</time>
   <time name="total">    6.47    6.48</time>
   <energy>
    <i name="e_fr_energy">   -682.56884815 </i>
    <i name="e_wo_entrp">   -682.56884815 </i>
    <i name="e_0_energy">   -682.56884815 </i>
   </energy>
  </scstep>
  <scstep>
   <time name="dav">    5.30    5.31</time>
   <time name="total">    6.47    6.48</time>
   <energy>
    <i name="e_fr_energy">   -682.56884884 </i>
    <i name="e_wo_entrp">   -682.56884884 </i>
    <i name="e_0_energy">   -682.56884884 </i>
   </energy>
  </scstep>
  <scstep>
   <time name="dav">    3.51    3.52</time>
   <time name="total">    4.67    4.69</time>
   <energy>
    <i name="e_fr_energy">   -682.56884794 </i>
    <i name="e_wo_entrp">   -682.56884794 </i>
    <i name="e_0_energy">   -682.56884794 </i>
   </energy>
  </scstep>
  <scstep>
   <time name="dav">    3.32    3.33</time>
   <time name="total">    4.49    4.50</time>
   <energy>
    <i name="e_fr_energy">   -682.56884800 </i>
    <i name="e_wo_entrp">   -682.56884800 </i>
    <i name="e_0_energy">   -682.56884800 </i>
   </energy>
  </scstep>
  <scstep>
   <time name="dav">    3.33    3.33</time>
   <time name="total">    4.49    4.50</time>
   <energy>
    <i name="e_fr_energy">   -682.56884804 </i>
    <i name="e_wo_entrp">   -682.56884804 </i>
    <i name="e_0_energy">   -682.56884804 </i>
   </energy>
  </scstep>
  <scstep>
   <time name="dav">    3.24    3.25</time>
   <time name="total">    4.40    4.41</time>
   <energy>
    <i name="e_fr_energy">   -682.56884802 </i>
    <i name="e_wo_entrp">   -682.56884802 </i>
    <i name="e_0_energy">   -682.56884802 </i>
   </energy>
  </scstep>
  <scstep>
   <time name="dav">    3.20    3.21</time>
   <time name="total">    3.70    3.70</time>
   <energy>
    <i name="alphaZ">    210.78028765 </i>
    <i name="ewald"> -14524.86756189 </i>
    <i name="hartreedc">   -991.73199851 </i>
    <i name="XCdc">  -1153.28599280 </i>
    <i name="pawpsdc">   4723.40672358 </i>
    <i name="pawaedc">  -2485.14482420 </i>
    <i name="eentropy">     -0.00000000 </i>
    <i name="bandstr">    345.79365817 </i>
    <i name="atom">  13192.48085998 </i>
    <i name="e_fr_energy">   -682.56884802 </i>
    <i name="e_wo_entrp">   -682.56884802 </i>
    <i name="e_0_energy">   -682.56884802 </i>
   </energy>
  </scstep>
  <structure>
   <crystal>
    <varray name="basis" >
     <v>       0.00000000      10.93716070      10.93716070 </v>
     <v>      10.93716070       0.00000000      10.93716070 </v>
     <v>      10.93716070      10.93716070       0.00000000 </v>
    </varray>
    <i name="volume">   2616.63878844 </i>
    <varray name="rec_basis" >
     <v>      -0.04571570       0.04571570       0.04571570 </v>
     <v>       0.04571570      -0.04571570       0.04571570 </v>
     <v>       0.04571570       0.04571570      -0.04571570 </v>
    </varray>
   </crystal>
   <varray name="positions" >
    <v>       0.06295716       0.06204284       0.06204284 </v>
    <v>       0.31250000       0.06250000       0.06250000 </v>
    <v>       0.56250000       0.06250000       0.06250000 </v>
    <v>       0.81250000       0.06250000       0.06250000 </v>
    <v>       0.06250000       0.31250000       0.06250000 </v>
    <v>       0.31250000       0.31250000       0.06250000 </v>
    <v>       0.56250000       0.31250000       0.06250000 </v>
    <v>       0.81250000       0.31250000       0.06250000 </v>
    <v>       0.06250000       0.56250000       0.06250000 </v>
    <v>       0.31250000       0.56250000       0.06250000 </v>
    <v>       0.56250000       0.56250000       0.06250000 </v>
    <v>       0.81250000       0.56250000       0.06250000 </v>
    <v>       0.06250000       0.81250000       0.06250000 </v>
    <v>       0.31250000       0.81250000       0.06250000 </v>
    <v>       0.56250000       0.81250000       0.06250000 </v>
    <v>       0.81250000       0.81250000       0.06250000 </v>
    <v>       0.06250000       0.06250000       0.31250000 </v>
    <v>       0.31250000       0.06250000       0.31250000 </v>
    <v>       0.56250000       0.06250000       0.31250000 </v>
    <v>       0.81250000       0.06250000       0.31250000 </v>
    <v>       0.06250000       0.31250000       0.31250000 </v>
    <v>       0.31250000       0.31250000       0.31250000 </v>
    <v>       0.56250000       0.31250000       0.31250000 </v>
    <v>       0.81250000       0.31250000       0.31250000 </v>
    <v>       0.06250000       0.56250000       0.31250000 </v>
    <v>       0.31250000       0.56250000       0.31250000 </v>
    <v>       0.56250000       0.56250000       0.31250000 </v>
    <v>       0.81250000       0.56250000       0.31250000 </v>
    <v>       0.06250000       0.81250000       0.31250000 </v>
    <v>       0.31250000       0.81250000       0.31250000 </v>
    <v>       0.56250000       0.81250000       0.31250000 </v>
    <v>       0.81250000       0.81250000       0.31250000 </v>
    <v>       0.06250000       0.06250000       0.56250000 </v>
    <v>       0.31250000       0.06250000       0.56250000 </v>
    <v>       0.56250000       0.06250000       0.56250000 </v>
    <v>       0.81250000       0.06250000       0.56250000 </v>
    <v>       0.06250000       0.31250000       0.56250000 </v>
    <v>       0.31250000       0.31250000       0.56250000 </v>
    <v>       0.56250000       0.31250000       0.56250000 </v>
    <v>       0.81250000       0.31250000       0.56250000 </v>
    <v>       0.06250000       0.56250000       0.56250000 </v>
    <v>       0.31250000       0.56250000       0.56250000 </v>
    <v>       0.56250000       0.56250000       0.56250000 </v>
    <v>       0.81250000       0.56250000       0.56250000 </v>
    <v>       0.06250000       0.81250000       0.56250000 </v>
    <v>       0.31250000       0.81250000       0.56250000 </v>
    <v>       0.56250000       0.81250000       0.56250000 </v>
    <v>       0.81250000       0.81250000       0.56250000 </v>
    <v>       0.06250000       0.06250000       0.81250000 </v>
    <v>       0.31250000       0.06250000       0.81250000 </v>
    <v>       0.56250000       0.06250000       0.81250000 </v>
    <v>       0.81250000       0.06250000       0.81250000 </v>
    <v>       0.06250000       0.31250000       0.81250000 </v>
    <v>       0.31250000       0.31250000       0.81250000 </v>
    <v>       0.56250000       0.31250000       0.81250000 </v>
    <v>       0.81250000       0.31250000       0.81250000 </v>
    <v>       0.06250000       0.56250000       0.81250000 </v>
    <v>       0.31250000       0.56250000       0.81250000 </v>
    <v>       0.56250000       0.56250000       0.81250000 </v>
    <v>       0.81250000       0.56250000       0.81250000 </v>
    <v>       0.06250000       0.81250000       0.81250000 </v>
    <v>       0.31250000       0.81250000       0.81250000 </v>
    <v>       0.56250000       0.81250000       0.81250000 </v>
    <v>       0.81250000       0.81250000       0.81250000 </v>
    <v>       0.00000000       0.00000000       0.00000000 </v>
    <v>       0.25000000       0.00000000       0.00000000 </v>
    <v>       0.50000000       0.00000000       0.00000000 </v>
    <v>       0.75000000       0.00000000       0.00000000 </v>
    <v>       0.00000000       0.25000000       0.00000000 </v>
    <v>       0.25000000       0.25000000       0.00000000 </v>
    <v>       0.50000000       0.25000000       0.00000000 </v>
    <v>       0.75000000       0.25000000       0.00000000 </v>
    <v>       0.00000000       0.50000000       0.00000000 </v>
    <v>       0.25000000       0.50000000       0.00000000 </v>
    <v>       0.50000000       0.50000000       0.00000000 </v>
    <v>       0.75000000       0.50000000       0.00000000 </v>
    <v>       0.00000000       0.75000000       0.00000000 </v>
    <v>       0.25000000       0.75000000       0.00000000 </v>
    <v>       0.50000000       0.75000000       0.00000000 </v>
    <v>       0.75000000       0.75000000       0.00000000 </v>
    <v>       0.00000000       0.00000000       0.25000000 </v>
    <v>       0.25000000       0.00000000       0.25000000 </v>
    <v>       0.50000000       0.00000000       0.25000000 </v>
    <v>       0.75000000       0.00000000       0.25000000 </v>
    <v>       0.00000000       0.25000000       0.25000000 </v>
    <v>       0.25000000       0.25000000       0.25000000 </v>
    <v>       0.50000000       0.25000000       0.25000000 </v>
    <v>       0.75000000       0.25000000       0.25000000 </v>
    <v>       0.00000000       0.50000000       0.25000000 </v>
    <v>       0.25000000       0.50000000       0.25000000 </v>
    <v>       0.50000000       0.50000000       0.25000000 </v>
    <v>       0.75000000       0.50000000       0.25000000 </v>
    <v>       0.00000000       0.75000000       0.25000000 </v>
    <v>       0.25000000       0.75000000       0.25000000 </v>
    <v>       0.50000000       0.75000000       0.25000000 </v>
    <v>       0.75000000       0.75000000       0.25000000 </v>
    <v>       0.00000000       0.00000000       0.50000000 </v>
    <v>       0.25000000       0.00000000       0.50000000 </v>
    <v>       0.50000000       0.00000000       0.50000000 </v>
    <v>       0.75000000       0.00000000       0.50000000 </v>
    <v>       0.00000000       0.25000000       0.50000000 </v>
    <v>       0.25000000       0.25000000       0.50000000 </v>
    <v>       0.50000000       0.25000000       0.50000000 </v>
    <v>       0.75000000       0.25000000       0.50000000 </v>
    <v>       0.00000000       0.50000000       0.50000000 </v>
    <v>       0.25000000       0.50000000       0.50000000 </v>
    <v>       0.50000000       0.50000000       0.50000000 </v>
    <v>       0.75000000       0.50000000       0.50000000 </v>
    <v>       0.00000000       0.75000000       0.50000000 </v>
    <v>       0.25000000       0.75000000       0.50000000 </v>
    <v>       0.50000000       0.75000000       0.50000000 </v>
    <v>       0.75000000       0.75000000       0.50000000 </v>
    <v>       0.00000000       0.00000000       0.75000000 </v>
    <v>       0.25000000       0.00000000       0.75000000 </v>
    <v>       0.50000000       0.00000000       0.75000000 </v>
    <v>       0.75000000       0.00000000       0.75000000 </v>
    <v>       0.00000000       0.25000000       0.75000000 </v>
    <v>       0.25000000       0.25000000       0.75000000 </v>
    <v>       0.50000000       0.25000000       0.75000000 </v>
    <v>       0.75000000       0.25000000       0.75000000 </v>
    <v>       0.00000000       0.50000000       0.75000000 </v>
    <v>       0.25000000       0.50000000       0.75000000 </v>
    <v>       0.50000000       0.50000000       0.75000000 </v>
    <v>       0.75000000       0.50000000       0.75000000 </v>
    <v>       0.00000000       0.75000000       0.75000000 </v>
    <v>       0.25000000       0.75000000       0.75000000 </v>
    <v>       0.50000000       0.75000000       0.75000000 </v>
    <v>       0.75000000       0.75000000       0.75000000 </v>
   </varray>
  </structure>
  <varray name="forces" >
   <v>       0.13030840       0.00000000      -0.00000000 </v>
   <v>       0.00492025      -0.00096466      -0.00096466 </v>
   <v>       0.00167923       0.00000000       0.00000000 </v>
   <v>       0.00492025       0.00096466       0.00096466 </v>
   <v>      -0.00157126       0.00095102      -0.00201799 </v>
   <v>      -0.00010431       0.00027208      -0.00014990 </v>
   <v>      -0.00010431       0.00014990      -0.00027208 </v>
   <v>      -0.00157126       0.00201799      -0.00095102 </v>
   <v>      -0.00014202      -0.00000119      -0.00037071 </v>
   <v>      -0.00004685       0.00020827      -0.00020827 </v>
   <v>      -0.00014202       0.00037071       0.00000119 </v>
   <v>      -0.00004780       0.00014971      -0.00014971 </v>
   <v>      -0.00158512      -0.00096173      -0.00203409 </v>
   <v>      -0.00158512       0.00203409       0.00096173 </v>
   <v>      -0.00010409       0.00020772      -0.00027153 </v>
   <v>      -0.00010409       0.00027153      -0.00020772 </v>
   <v>      -0.00157126      -0.00201799       0.00095102 </v>
   <v>      -0.00010431      -0.00014990       0.00027208 </v>
   <v>      -0.00010431      -0.00027208       0.00014990 </v>
   <v>      -0.00157126      -0.00095102       0.00201799 </v>
   <v>      -0.00004621      -0.00020833      -0.00020833 </v>
   <v>      -0.00010383       0.00000000      -0.00000000 </v>
   <v>      -0.00004621       0.00020833       0.00020833 </v>
   <v>      -0.00016557      -0.00000000      -0.00000000 </v>
   <v>      -0.00010408      -0.00027002      -0.00014930 </v>
   <v>      -0.00010408       0.00014930       0.00027002 </v>
   <v>      -0.00009406       0.00000169       0.00001222 </v>
   <v>      -0.00009406      -0.00001222      -0.00000169 </v>
   <v>       0.00491472       0.00094783      -0.00094783 </v>
   <v>      -0.00025199       0.00000033      -0.00000000 </v>
   <v>      -0.00012664       0.00001236      -0.00001236 </v>
   <v>      -0.00025199       0.00000000      -0.00000033 </v>
   <v>      -0.00014202      -0.00037071      -0.00000119 </v>
   <v>      -0.00004685      -0.00020827       0.00020827 </v>
   <v>      -0.00014202       0.00000119       0.00037071 </v>
   <v>      -0.00004780      -0.00014971       0.00014971 </v>
   <v>      -0.00010408      -0.00014930      -0.00027002 </v>
   <v>      -0.00010408       0.00027002       0.00014930 </v>
   <v>      -0.00009406       0.00001222       0.00000169 </v>
   <v>      -0.00009406      -0.00000169      -0.00001222 </v>
   <v>       0.00166962       0.00000000      -0.00000000 </v>
   <v>      -0.00012643      -0.00001229      -0.00001229 </v>
   <v>      -0.00011314       0.00000000      -0.00000000 </v>
   <v>      -0.00012643       0.00001229       0.00001229 </v>
   <v>      -0.00010427      -0.00020882      -0.00027052 </v>
   <v>      -0.00009444      -0.00000114       0.00001239 </v>
   <v>      -0.00009444      -0.00001239       0.00000114 </v>
   <v>      -0.00010427       0.00027052       0.00020882 </v>
   <v>      -0.00158512      -0.00203409      -0.00096173 </v>
   <v>      -0.00158512       0.00096173       0.00203409 </v>
   <v>      -0.00010409      -0.00027153       0.00020772 </v>
   <v>      -0.00010409      -0.00020772       0.00027153 </v>
   <v>       0.00491472      -0.00094783       0.00094783 </v>
   <v>      -0.00025199      -0.00000000       0.00000033 </v>
   <v>      -0.00012664      -0.00001236       0.00001236 </v>
   <v>      -0.00025199      -0.00000033       0.00000000 </v>
   <v>      -0.00010427      -0.00027052      -0.00020882 </v>
   <v>      -0.00009444       0.00001239      -0.00000114 </v>
   <v>      -0.00009444       0.00000114      -0.00001239 </v>
   <v>      -0.00010427       0.00020882       0.00027052 </v>
   <v>      -0.00004525      -0.00014948      -0.00014948 </v>
   <v>      -0.00016694       0.00000000      -0.00000000 </v>
   <v>      -0.00004525       0.00014948       0.00014948 </v>
   <v>      -0.00010391       0.00000000      -0.00000000 </v>
   <v>      -0.03285833      -0.02052076      -0.02052076 </v>
   <v>      -0.03285833       0.02052076       0.02052076 </v>
   <v>      -0.00205352      -0.00047446      -0.00047446 </v>
   <v>      -0.00205352       0.00047446       0.00047446 </v>
   <v>      -0.03256095       0.01994900      -0.01994900 </v>
   <v>       0.00024971      -0.00034347       0.00034005 </v>
   <v>       0.00007836      -0.00015887       0.00015887 </v>
   <v>       0.00024971      -0.00034005       0.00034347 </v>
   <v>      -0.00020656      -0.00047349      -0.00019636 </v>
   <v>      -0.00005493      -0.00015900       0.00007977 </v>
   <v>      -0.00005493      -0.00007977       0.00015900 </v>
   <v>      -0.00020656       0.00019636       0.00047349 </v>
   <v>      -0.00020985       0.00047431      -0.00019764 </v>
   <v>       0.00007677      -0.00034073       0.00034073 </v>
   <v>      -0.00020985       0.00019764      -0.00047431 </v>
   <v>       0.00025066      -0.00038541       0.00038541 </v>
   <v>      -0.03256095      -0.01994900       0.01994900 </v>
   <v>       0.00024971       0.00034005      -0.00034347 </v>
   <v>       0.00007836       0.00015887      -0.00015887 </v>
   <v>       0.00024971       0.00034347      -0.00034005 </v>
   <v>       0.00007727       0.00034333       0.00034333 </v>
   <v>       0.00009876      -0.00001879      -0.00001879 </v>
   <v>       0.00009876       0.00001879       0.00001879 </v>
   <v>       0.00007727      -0.00034333      -0.00034333 </v>
   <v>      -0.00005533       0.00015751       0.00008054 </v>
   <v>       0.00009907       0.00001851      -0.00001851 </v>
   <v>      -0.00005533      -0.00008054      -0.00015751 </v>
   <v>       0.00006428       0.00002172      -0.00002172 </v>
   <v>       0.00025181       0.00033754       0.00034401 </v>
   <v>       0.00025181      -0.00034401      -0.00033754 </v>
   <v>       0.00015559       0.00002197       0.00000784 </v>
   <v>       0.00015559      -0.00000784      -0.00002197 </v>
   <v>      -0.00020656      -0.00019636      -0.00047349 </v>
   <v>      -0.00005493       0.00007977      -0.00015900 </v>
   <v>      -0.00005493       0.00015900      -0.00007977 </v>
   <v>      -0.00020656       0.00047349       0.00019636 </v>
   <v>      -0.00005533       0.00008054       0.00015751 </v>
   <v>       0.00009907      -0.00001851       0.00001851 </v>
   <v>      -0.00005533      -0.00015751      -0.00008054 </v>
   <v>       0.00006428      -0.00002172       0.00002172 </v>
   <v>       0.00007748       0.00015761       0.00015761 </v>
   <v>       0.00007748      -0.00015761      -0.00015761 </v>
   <v>       0.00010557      -0.00002416      -0.00002416 </v>
   <v>       0.00010557       0.00002416       0.00002416 </v>
   <v>      -0.00203655       0.00047334      -0.00047334 </v>
   <v>       0.00015588      -0.00002193       0.00000712 </v>
   <v>       0.00010617       0.00002374      -0.00002374 </v>
   <v>       0.00015588      -0.00000712       0.00002193 </v>
   <v>      -0.00020985      -0.00019764       0.00047431 </v>
   <v>       0.00007677       0.00034073      -0.00034073 </v>
   <v>      -0.00020985      -0.00047431       0.00019764 </v>
   <v>       0.00025066       0.00038541      -0.00038541 </v>
   <v>       0.00025181       0.00034401       0.00033754 </v>
   <v>       0.00025181      -0.00033754      -0.00034401 </v>
   <v>       0.00015559       0.00000784       0.00002197 </v>
   <v>       0.00015559      -0.00002197      -0.00000784 </v>
   <v>      -0.00203655      -0.00047334       0.00047334 </v>
   <v>       0.00015588       0.00000712      -0.00002193 </v>
   <v>       0.00010617      -0.00002374       0.00002374 </v>
   <v>       0.00015588       0.00002193      -0.00000712 </v>
   <v>       0.00025109       0.00038701       0.00038701 </v>
   <v>       0.00006482      -0.00002214      -0.00002214 </v>
   <v>       0.00006482       0.00002214       0.00002214 </v>
   <v>       0.00025109      -0.00038701      -0.00038701 </v>
  </varray>
  <varray name="stress" >
   <v>       5.73079662       0.00000000       0.00000000 </v>
   <v>       0.00000000       5.73184006       0.05338547 </v>
   <v>       0.00000000       0.05338547       5.73184006 </v>
  </varray>
  <energy>
   <i name="e_fr_energy">   -682.56884802 </i>
   <i name="e_wo_entrp">   -682.56884802 </i>
   <i name="e_0_energy">     -0.00000000 </i>
  </energy>
  <time name="totalsc">  122.63  122.96</time>
  <eigenvalues>
   <array>
    <dimension dim="1">band</dimension>
    <dimension dim="2">kpoint</dimension>
    <dimension dim="3">spin</dimension>
    <field>eigene</field>
    <field>occ</field>
    <set>
     <set comment="spin 1">
      <set comment="kpoint 1">
       <r>   -6.1630    1.0000 </r>
       <r>   -5.3786    1.0000 </r>
       <r>   -5.3778    1.0000 </r>
       <r>   -5.3776    1.0000 </r>
       <r>   -5.3775    1.0000 </r>
       <r>   -5.3774    1.0000 </r>
       <r>   -5.3774    1.0000 </r>
       <r>   -5.3772    1.0000 </r>
       <r>   -5.3764    1.0000 </r>
       <r>   -5.1005    1.0000 </r>
       <r>   -5.0999    1.0000 </r>
       <r>   -5.0996    1.0000 </r>
       <r>   -5.0996    1.0000 </r>
       <r>   -5.0994    1.0000 </r>
       <r>   -5.0987    1.0000 </r>
       <r>   -4.1590    1.0000 </r>
       <r>   -4.1576    1.0000 </r>
       <r>   -4.1571    1.0000 </r>
       <r>   -4.1570    1.0000 </r>
       <r>   -4.1570    1.0000 </r>
       <r>   -4.1570    1.0000 </r>
       <r>   -4.1569    1.0000 </r>
       <r>   -4.1569    1.0000 </r>
       <r>   -4.1569    1.0000 </r>
       <r>   -4.1568    1.0000 </r>
       <r>   -4.1563    1.0000 </r>
       <r>   -4.1550    1.0000 </r>
       <r>   -3.8818    1.0000 </r>
       <r>   -3.8814    1.0000 </r>
       <r>   -3.8809    1.0000 </r>
       <r>   -3.8806    1.0000 </r>
       <r>   -3.5002    1.0000 </r>
       <r>   -3.4978    1.0000 </r>
       <r>   -3.4966    1.0000 </r>
       <r>   -3.4965    1.0000 </r>
       <r>   -3.4964    1.0000 </r>
       <r>   -3.4964    1.0000 </r>
       <r>   -3.4963    1.0000 </r>
       <r>   -3.4963    1.0000 </r>
       <r>   -3.4963    1.0000 </r>
       <r>   -3.4963    1.0000 </r>
       <r>   -3.4962    1.0000 </r>
       <r>   -3.4962    1.0000 </r>
       <r>   -3.4962    1.0000 </r>
       <r>   -3.4962    1.0000 </r>
       <r>   -3.4962    1.0000 </r>
       <r>   -3.4962    1.0000 </r>
       <r>   -3.4962    1.0000 </r>
       <r>   -3.4961    1.0000 </r>
       <r>   -3.4961    1.0000 </r>
       <r>   -3.4961    1.0000 </r>
       <r>   -3.4959    1.0000 </r>
       <r>   -3.4958    1.0000 </r>
       <r>   -3.4946    1.0000 </r>
       <r>   -3.4923    1.0000 </r>
       <r>   -2.0919    1.0000 </r>
       <r>   -2.0914    1.0000 </r>
       <r>   -2.0909    1.0000 </r>
       <r>   -2.0909    1.0000 </r>
       <r>   -2.0904    1.0000 </r>
       <r>   -2.0900    1.0000 </r>
       <r>   -1.9373    1.0000 </r>
       <r>   -1.9365    1.0000 </r>
       <r>   -1.9356    1.0000 </r>
       <r>   -1.9355    1.0000 </r>
       <r>   -1.9354    1.0000 </r>
       <r>   -1.9354    1.0000 </r>
       <r>   -1.9354    1.0000 </r>
       <r>   -1.9354    1.0000 </r>
       <r>   -1.9353    1.0000 </r>
       <r>   -1.9352    1.0000 </r>
       <r>   -1.9343    1.0000 </r>
       <r>   -1.9335    1.0000 </r>
       <r>   -1.2191    1.0000 </r>
       <r>   -1.2185    1.0000 </r>
       <r>   -1.2183    1.0000 </r>
       <r>   -1.2178    1.0000 </r>
       <r>   -0.6722    1.0000 </r>
       <r>   -0.6709    1.0000 </r>
       <r>   -0.6689    1.0000 </r>
       <r>   -0.6689    1.0000 </r>
       <r>   -0.6689    1.0000 </r>
       <r>   -0.6688    1.0000 </r>
       <r>   -0.6687    1.0000 </r>
       <r>   -0.6687    1.0000 </r>
       <r>   -0.6687    1.0000 </r>
       <r>   -0.6687    1.0000 </r>
       <r>   -0.6687    1.0000 </r>
       <r>   -0.6686    1.0000 </r>
       <r>   -0.6686    1.0000 </r>
       <r>   -0.6686    1.0000 </r>
       <r>   -0.6686    1.0000 </r>
       <r>   -0.6685    1.0000 </r>
       <r>   -0.6685    1.0000 </r>
       <r>   -0.6685    1.0000 </r>
       <r>   -0.6685    1.0000 </r>
       <r>   -0.6684    1.0000 </r>
       <r>   -0.6683    1.0000 </r>
       <r>   -0.6683    1.0000 </r>
       <r>   -0.6663    1.0000 </r>
       <r>   -0.6650    1.0000 </r>
       <r>    0.2152    1.0000 </r>
       <r>    0.2154    1.0000 </r>
       <r>    0.2166    1.0000 </r>
       <r>    0.2167    1.0000 </r>
       <r>    0.2167    1.0000 </r>
       <r>    0.2167    1.0000 </r>
       <r>    0.2167    1.0000 </r>
       <r>    0.2168    1.0000 </r>
       <r>    0.2168    1.0000 </r>
       <r>    0.2169    1.0000 </r>
       <r>    0.2181    1.0000 </r>
       <r>    0.2182    1.0000 </r>
       <r>    1.7669    1.0000 </r>
       <r>    1.7672    1.0000 </r>
       <r>    1.7676    1.0000 </r>
       <r>    1.7678    1.0000 </r>
       <r>    1.7679    1.0000 </r>
       <r>    1.7681    1.0000 </r>
       <r>    1.7685    1.0000 </r>
       <r>    1.7688    1.0000 </r>
       <r>    1.8849    1.0000 </r>
       <r>    1.8856    1.0000 </r>
       <r>    1.8858    1.0000 </r>
       <r>    1.8858    1.0000 </r>
       <r>    1.8859    1.0000 </r>
       <r>    1.8860    1.0000 </r>
       <r>    1.8860    1.0000 </r>
       <r>    1.8861    1.0000 </r>
       <r>    1.8862    1.0000 </r>
       <r>    1.8862    1.0000 </r>
       <r>    1.8864    1.0000 </r>
       <r>    1.8871    1.0000 </r>
       <r>    1.9780    1.0000 </r>
       <r>    1.9780    1.0000 </r>
       <r>    1.9783    1.0000 </r>
       <r>    1.9788    1.0000 </r>
       <r>    1.9789    1.0000 </r>
       <r>    1.9789    1.0000 </r>
       <r>    1.9789    1.0000 </r>
       <r>    1.9789    1.0000 </r>
       <r>    1.9790    1.0000 </r>
       <r>    1.9795    1.0000 </r>
       <r>    1.9797    1.0000 </r>
       <r>    1.9797    1.0000 </r>
       <r>    2.1401    1.0000 </r>
       <r>    2.1406    1.0000 </r>
       <r>    2.1411    1.0000 </r>
       <r>    2.1411    1.0000 </r>
       <r>    2.1416    1.0000 </r>
       <r>    2.1420    1.0000 </r>
       <r>    2.1847    1.0000 </r>
       <r>    2.1853    1.0000 </r>
       <r>    2.1861    1.0000 </r>
       <r>    2.1866    1.0000 </r>
       <r>    2.1866    1.0000 </r>
       <r>    2.1867    1.0000 </r>
       <r>    2.1867    1.0000 </r>
       <r>    2.1868    1.0000 </r>
       <r>    2.1868    1.0000 </r>
       <r>    2.1869    1.0000 </r>
       <r>    2.1869    1.0000 </r>
       <r>    2.1869    1.0000 </r>
       <r>    2.1869    1.0000 </r>
       <r>    2.1869    1.0000 </r>
       <r>    2.1870    1.0000 </r>
       <r>    2.1870    1.0000 </r>
       <r>    2.1871    1.0000 </r>
       <r>    2.1871    1.0000 </r>
       <r>    2.1871    1.0000 </r>
       <r>    2.1872    1.0000 </r>
       <r>    2.1872    1.0000 </r>
       <r>    2.1877    1.0000 </r>
       <r>    2.1887    1.0000 </r>
       <r>    2.1892    1.0000 </r>
       <r>    2.8562    1.0000 </r>
       <r>    2.8566    1.0000 </r>
       <r>    2.8566    1.0000 </r>
       <r>    2.8566    1.0000 </r>
       <r>    2.8567    1.0000 </r>
       <r>    2.8571    1.0000 </r>
       <r>    3.4899    1.0000 </r>
       <r>    3.4913    1.0000 </r>
       <r>    3.4921    1.0000 </r>
       <r>    3.4921    1.0000 </r>
       <r>    3.4922    1.0000 </r>
       <r>    3.4924    1.0000 </r>
       <r>    3.4924    1.0000 </r>
       <r>    3.4924    1.0000 </r>
       <r>    3.4925    1.0000 </r>
       <r>    3.4925    1.0000 </r>
       <r>    3.4925    1.0000 </r>
       <r>    3.4925    1.0000 </r>
       <r>    3.4925    1.0000 </r>
       <r>    3.4925    1.0000 </r>
       <r>    3.4926    1.0000 </r>
       <r>    3.4926    1.0000 </r>
       <r>    3.4926    1.0000 </r>
       <r>    3.4927    1.0000 </r>
       <r>    3.4927    1.0000 </r>
       <r>    3.4928    1.0000 </r>
       <r>    3.4929    1.0000 </r>
       <r>    3.4929    1.0000 </r>
       <r>    3.4938    1.0000 </r>
       <r>    3.4951    1.0000 </r>
       <r>    3.8022    1.0000 </r>
       <r>    3.8034    1.0000 </r>
       <r>    3.8037    1.0000 </r>
       <r>    3.8038    1.0000 </r>
       <r>    3.8038    1.0000 </r>
       <r>    3.8038    1.0000 </r>
       <r>    3.8038    1.0000 </r>
       <r>    3.8038    1.0000 </r>
       <r>    3.8039    1.0000 </r>
       <r>    3.8039    1.0000 </r>
       <r>    3.8043    1.0000 </r>
       <r>    3.8055    1.0000 </r>
       <r>    4.3511    1.0000 </r>
       <r>    4.3520    1.0000 </r>
       <r>    4.3526    1.0000 </r>
       <r>    4.3527    1.0000 </r>
       <r>    4.3527    1.0000 </r>
       <r>    4.3528    1.0000 </r>
       <r>    4.3528    1.0000 </r>
       <r>    4.3529    1.0000 </r>
       <r>    4.3530    1.0000 </r>
       <r>    4.3530    1.0000 </r>
       <r>    4.3536    1.0000 </r>
       <r>    4.3545    1.0000 </r>
       <r>    4.4764    1.0000 </r>
       <r>    4.4773    1.0000 </r>
       <r>    4.4776    1.0000 </r>
       <r>    4.4776    1.0000 </r>
       <r>    4.4778    1.0000 </r>
       <r>    4.4778    1.0000 </r>
       <r>    4.4781    1.0000 </r>
       <r>    4.4790    1.0000 </r>
       <r>    4.9087    1.0000 </r>
       <r>    4.9114    1.0000 </r>
       <r>    4.9115    1.0000 </r>
       <r>    4.9116    1.0000 </r>
       <r>    4.9116    1.0000 </r>
       <r>    4.9117    1.0000 </r>
       <r>    4.9117    1.0000 </r>
       <r>    4.9118    1.0000 </r>
       <r>    4.9118    1.0000 </r>
       <r>    4.9118    1.0000 </r>
       <r>    4.9118    1.0000 </r>
       <r>    4.9119    1.0000 </r>
       <r>    4.9120    1.0000 </r>
       <r>    4.9121    1.0000 </r>
       <r>    4.9122    1.0000 </r>
       <r>    4.9149    1.0000 </r>
       <r>    5.6597    1.0000 </r>
       <r>    5.6604    1.0000 </r>
       <r>    5.6612    1.0000 </r>
       <r>    6.3944    0.0000 </r>
       <r>    6.3947    0.0000 </r>
       <r>    6.3951    0.0000 </r>
       <r>    6.3951    0.0000 </r>
       <r>    6.3956    0.0000 </r>
       <r>    6.3958    0.0000 </r>
       <r>    6.7955    0.0000 </r>
       <r>    6.7957    0.0000 </r>
       <r>    6.7963    0.0000 </r>
       <r>    6.7963    0.0000 </r>
       <r>    6.7968    0.0000 </r>
       <r>    6.7970    0.0000 </r>
       <r>    7.1207    0.0000 </r>
       <r>    7.1208    0.0000 </r>
       <r>    7.1209    0.0000 </r>
       <r>    7.1210    0.0000 </r>
       <r>    7.1833    0.0000 </r>
       <r>    7.1837    0.0000 </r>
       <r>    7.1858    0.0000 </r>
       <r>    7.1858    0.0000 </r>
       <r>    7.1858    0.0000 </r>
       <r>    7.1858    0.0000 </r>
       <r>    7.1859    0.0000 </r>
       <r>    7.1859    0.0000 </r>
       <r>    7.1859    0.0000 </r>
       <r>    7.1859    0.0000 </r>
       <r>    7.1860    0.0000 </r>
       <r>    7.1860    0.0000 </r>
       <r>    7.1860    0.0000 </r>
       <r>    7.1860    0.0000 </r>
       <r>    7.1861    0.0000 </r>
       <r>    7.1861    0.0000 </r>
       <r>    7.1861    0.0000 </r>
       <r>    7.1861    0.0000 </r>
       <r>    7.1862    0.0000 </r>
       <r>    7.1862    0.0000 </r>
       <r>    7.1862    0.0000 </r>
       <r>    7.1862    0.0000 </r>
       <r>    7.1883    0.0000 </r>
       <r>    7.1887    0.0000 </r>
       <r>    7.6116    0.0000 </r>
       <r>    7.6118    0.0000 </r>
       <r>    7.6120    0.0000 </r>
       <r>    7.6122    0.0000 </r>
       <r>    7.6122    0.0000 </r>
       <r>    7.6124    0.0000 </r>
       <r>    7.6127    0.0000 </r>
       <r>    7.6129    0.0000 </r>
       <r>    8.0817    0.0000 </r>
       <r>    8.0818    0.0000 </r>
       <r>    8.0828    0.0000 </r>
       <r>    8.0828    0.0000 </r>
       <r>    8.0829    0.0000 </r>
       <r>    8.0829    0.0000 </r>
       <r>    8.0829    0.0000 </r>
       <r>    8.0830    0.0000 </r>
       <r>    8.0830    0.0000 </r>
       <r>    8.0831    0.0000 </r>
       <r>    8.0841    0.0000 </r>
       <r>    8.0842    0.0000 </r>
       <r>    8.1989    0.0000 </r>
       <r>    8.1993    0.0000 </r>
       <r>    8.1998    0.0000 </r>
       <r>    8.7787    0.0000 </r>
       <r>    8.7792    0.0000 </r>
       <r>    8.7876    0.0000 </r>
      </set>
     </set>
    </set>
   </array>
  </eigenvalues>
  <separator name="orbital magnetization" >
   <v name="MAGDIPOLOUT">      0.00000000      0.00000000      0.00000000</v>
  </separator>
  <dos>
   <i name="efermi">      5.92048341 </i>
   <total>
    <array>
     <dimension dim="1">gridpoints</dimension>
     <dimension dim="2">spin</dimension>
     <field>energy</field>
     <field>total</field>
     <field>integrated</field>
     <set>
      <set comment="spin 1">
       <r>    -6.9105     0.0000     0.0000 </r>
       <r>    -6.8557     0.0000     0.0000 </r>
       <r>    -6.8009     0.0000     0.0000 </r>
       <r>    -6.7461     0.0000     0.0000 </r>
       <r>    -6.6913     0.0000     0.0000 </r>
       <r>    -6.6364     0.0000     0.0000 </r>
       <r>    -6.5816     0.0000     0.0000 </r>
       <r>    -6.5268     0.0000     0.0000 </r>
       <r>    -6.4720     0.0000     0.0000 </r>
       <r>    -6.4172     0.0000     0.0000 </r>
       <r>    -6.3624     0.0000     0.0000 </r>
       <r>    -6.3075     0.0008     0.0000 </r>
       <r>    -6.2527     0.2030     0.0112 </r>
       <r>    -6.1979     5.7028     0.3238 </r>
       <r>    -6.1431    20.1268     1.4271 </r>
       <r>    -6.0883     9.8212     1.9655 </r>
       <r>    -6.0334     0.6246     1.9998 </r>
       <r>    -5.9786     0.0045     2.0000 </r>
       <r>    -5.9238     0.0000     2.0000 </r>
       <r>    -5.8690     0.0000     2.0000 </r>
       <r>    -5.8142     0.0000     2.0000 </r>
       <r>    -5.7593     0.0000     2.0000 </r>
       <r>    -5.7045     0.0000     2.0000 </r>
       <r>    -5.6497     0.0000     2.0000 </r>
       <r>    -5.5949     0.0000     2.0000 </r>
       <r>    -5.5401     0.0006     2.0000 </r>
       <r>    -5.4853     0.3354     2.0184 </r>
       <r>    -5.4304    19.2454     3.0734 </r>
       <r>    -5.3756   132.4611    10.3348 </r>
       <r>    -5.3208   123.9233    17.1281 </r>
       <r>    -5.2660    15.6693    17.9871 </r>
       <r>    -5.2112     0.4114    18.0096 </r>
       <r>    -5.1563    11.7307    18.6527 </r>
       <r>    -5.1015    92.8880    23.7447 </r>
       <r>    -5.0467    99.3983    29.1936 </r>
       <r>    -4.9919    14.4574    29.9861 </r>
       <r>    -4.9371     0.2523    30.0000 </r>
       <r>    -4.8822     0.0005    30.0000 </r>
       <r>    -4.8274     0.0000    30.0000 </r>
       <r>    -4.7726     0.0000    30.0000 </r>
       <r>    -4.7178     0.0000    30.0000 </r>
       <r>    -4.6630     0.0000    30.0000 </r>
       <r>    -4.6082     0.0000    30.0000 </r>
       <r>    -4.5533     0.0000    30.0000 </r>
       <r>    -4.4985     0.0000    30.0000 </r>
       <r>    -4.4437     0.0000    30.0000 </r>
       <r>    -4.3889     0.0000    30.0000 </r>
       <r>    -4.3341     0.0001    30.0000 </r>
       <r>    -4.2792     0.1191    30.0065 </r>
       <r>    -4.2244    12.2349    30.6772 </r>
       <r>    -4.1696   145.3983    38.6478 </r>
       <r>    -4.1148   229.0321    51.2031 </r>
       <r>    -4.0600    49.6869    53.9268 </r>
       <r>    -4.0051     1.3639    54.0016 </r>
       <r>    -3.9503     3.6535    54.2019 </r>
       <r>    -3.8955    46.3045    56.7402 </r>
       <r>    -3.8407    77.5394    60.9909 </r>
       <r>    -3.7859    17.8954    61.9719 </r>
       <r>    -3.7311     0.5117    61.9999 </r>
       <r>    -3.6762     0.0017    62.0000 </r>
       <r>    -3.6214     0.1759    62.0097 </r>
       <r>    -3.5666    20.2665    63.1206 </r>
       <r>    -3.5118   268.6348    77.8469 </r>
       <r>    -3.4570   469.6482   103.5924 </r>
       <r>    -3.4021   113.4611   109.8122 </r>
       <r>    -3.3473     3.4140   109.9994 </r>
       <r>    -3.2925     0.0112   110.0000 </r>
       <r>    -3.2377     0.0000   110.0000 </r>
       <r>    -3.1829     0.0000   110.0000 </r>
       <r>    -3.1280     0.0000   110.0000 </r>
       <r>    -3.0732     0.0000   110.0000 </r>
       <r>    -3.0184     0.0000   110.0000 </r>
       <r>    -2.9636     0.0000   110.0000 </r>
       <r>    -2.9088     0.0000   110.0000 </r>
       <r>    -2.8540     0.0000   110.0000 </r>
       <r>    -2.7991     0.0000   110.0000 </r>
       <r>    -2.7443     0.0000   110.0000 </r>
       <r>    -2.6895     0.0000   110.0000 </r>
       <r>    -2.6347     0.0000   110.0000 </r>
       <r>    -2.5799     0.0000   110.0000 </r>
       <r>    -2.5250     0.0000   110.0000 </r>
       <r>    -2.4702     0.0000   110.0000 </r>
       <r>    -2.4154     0.0000   110.0000 </r>
       <r>    -2.3606     0.0000   110.0000 </r>
       <r>    -2.3058     0.0000   110.0000 </r>
       <r>    -2.2509     0.0007   110.0000 </r>
       <r>    -2.1961     0.3203   110.0176 </r>
       <r>    -2.1413    16.5681   110.9258 </r>
       <r>    -2.0865   103.5216   116.6008 </r>
       <r>    -2.0317    89.6526   121.5154 </r>
       <r>    -1.9769    61.4796   124.8857 </r>
       <r>    -1.9220   230.7059   137.5327 </r>
       <r>    -1.8672   142.6648   145.3534 </r>
       <r>    -1.8124    11.6848   145.9939 </r>
       <r>    -1.7576     0.1106   146.0000 </r>
       <r>    -1.7028     0.0001   146.0000 </r>
       <r>    -1.6479     0.0000   146.0000 </r>
       <r>    -1.5931     0.0000   146.0000 </r>
       <r>    -1.5383     0.0000   146.0000 </r>
       <r>    -1.4835     0.0000   146.0000 </r>
       <r>    -1.4287     0.0000   146.0000 </r>
       <r>    -1.3738     0.0008   146.0000 </r>
       <r>    -1.3190     0.3226   146.0177 </r>
       <r>    -1.2642    13.9226   146.7810 </r>
       <r>    -1.2094    73.4159   150.8055 </r>
       <r>    -1.1546    53.0930   153.7160 </r>
       <r>    -1.0997     5.1226   153.9968 </r>
       <r>    -1.0449     0.0577   154.0000 </r>
       <r>    -0.9901     0.0001   154.0000 </r>
       <r>    -0.9353     0.0000   154.0000 </r>
       <r>    -0.8805     0.0000   154.0000 </r>
       <r>    -0.8257     0.0040   154.0002 </r>
       <r>    -0.7708     1.6871   154.0927 </r>
       <r>    -0.7160    77.2729   158.3287 </r>
       <r>    -0.6612   431.6312   181.9902 </r>
       <r>    -0.6064   330.6485   200.1160 </r>
       <r>    -0.5516    33.9584   201.9775 </r>
       <r>    -0.4967     0.4094   202.0000 </r>
       <r>    -0.4419     0.0005   202.0000 </r>
       <r>    -0.3871     0.0000   202.0000 </r>
       <r>    -0.3323     0.0000   202.0000 </r>
       <r>    -0.2775     0.0000   202.0000 </r>
       <r>    -0.2226     0.0000   202.0000 </r>
       <r>    -0.1678     0.0000   202.0000 </r>
       <r>    -0.1130     0.0000   202.0000 </r>
       <r>    -0.0582     0.0000   202.0000 </r>
       <r>    -0.0034     0.0000   202.0000 </r>
       <r>     0.0514     0.0006   202.0000 </r>
       <r>     0.1063     0.3903   202.0214 </r>
       <r>     0.1611    24.9094   203.3869 </r>
       <r>     0.2159   189.4941   213.7748 </r>
       <r>     0.2707   195.2391   224.4776 </r>
       <r>     0.3255    27.3141   225.9749 </r>
       <r>     0.3804     0.4575   226.0000 </r>
       <r>     0.4352     0.0008   226.0000 </r>
       <r>     0.4900     0.0000   226.0000 </r>
       <r>     0.5448     0.0000   226.0000 </r>
       <r>     0.5996     0.0000   226.0000 </r>
       <r>     0.6545     0.0000   226.0000 </r>
       <r>     0.7093     0.0000   226.0000 </r>
       <r>     0.7641     0.0000   226.0000 </r>
       <r>     0.8189     0.0000   226.0000 </r>
       <r>     0.8737     0.0000   226.0000 </r>
       <r>     0.9285     0.0000   226.0000 </r>
       <r>     0.9834     0.0000   226.0000 </r>
       <r>     1.0382     0.0000   226.0000 </r>
       <r>     1.0930     0.0000   226.0000 </r>
       <r>     1.1478     0.0000   226.0000 </r>
       <r>     1.2026     0.0000   226.0000 </r>
       <r>     1.2575     0.0000   226.0000 </r>
       <r>     1.3123     0.0000   226.0000 </r>
       <r>     1.3671     0.0000   226.0000 </r>
       <r>     1.4219     0.0000   226.0000 </r>
       <r>     1.4767     0.0000   226.0000 </r>
       <r>     1.5316     0.0000   226.0000 </r>
       <r>     1.5864     0.0000   226.0000 </r>
       <r>     1.6412     0.0498   226.0027 </r>
       <r>     1.6960     6.1119   226.3378 </r>
       <r>     1.7508    85.8777   231.0455 </r>
       <r>     1.8056   163.2927   239.9970 </r>
       <r>     1.8605   138.3594   247.5817 </r>
       <r>     1.9153   262.5480   261.9743 </r>
       <r>     1.9701   245.6302   275.4394 </r>
       <r>     2.0249   223.4886   287.6908 </r>
       <r>     2.0797    51.2944   290.5027 </r>
       <r>     2.1346   144.9583   298.4491 </r>
       <r>     2.1894   508.0199   326.2982 </r>
       <r>     2.2442   385.8715   347.4512 </r>
       <r>     2.2990    45.8264   349.9633 </r>
       <r>     2.3538     0.6680   349.9999 </r>
       <r>     2.4087     0.0010   350.0000 </r>
       <r>     2.4635     0.0000   350.0000 </r>
       <r>     2.5183     0.0000   350.0000 </r>
       <r>     2.5731     0.0000   350.0000 </r>
       <r>     2.6279     0.0000   350.0000 </r>
       <r>     2.6827     0.0001   350.0000 </r>
       <r>     2.7376     0.0831   350.0046 </r>
       <r>     2.7924     7.5018   350.4158 </r>
       <r>     2.8472    78.9088   354.7415 </r>
       <r>     2.9020   110.6311   360.8062 </r>
       <r>     2.9568    21.2764   361.9725 </r>
       <r>     3.0117     0.5004   361.9999 </r>
       <r>     3.0665     0.0013   362.0000 </r>
       <r>     3.1213     0.0000   362.0000 </r>
       <r>     3.1761     0.0000   362.0000 </r>
       <r>     3.2309     0.0000   362.0000 </r>
       <r>     3.2858     0.0000   362.0000 </r>
       <r>     3.3406     0.0076   362.0004 </r>
       <r>     3.3954     2.6309   362.1446 </r>
       <r>     3.4502    98.7515   367.5581 </r>
       <r>     3.5050   457.4632   392.6357 </r>
       <r>     3.5598   291.8326   408.6336 </r>
       <r>     3.6147    24.6843   409.9867 </r>
       <r>     3.6695     0.2735   410.0017 </r>
       <r>     3.7243     5.3345   410.2942 </r>
       <r>     3.7791   100.7348   415.8163 </r>
       <r>     3.8339   245.3422   429.2657 </r>
       <r>     3.8888    82.7901   433.8041 </r>
       <r>     3.9436     3.5558   433.9991 </r>
       <r>     3.9984     0.0170   434.0000 </r>
       <r>     4.0532     0.0000   434.0000 </r>
       <r>     4.1080     0.0000   434.0000 </r>
       <r>     4.1629     0.0000   434.0000 </r>
       <r>     4.2177     0.0290   434.0016 </r>
       <r>     4.2725     5.0335   434.2775 </r>
       <r>     4.3273    97.9975   439.6496 </r>
       <r>     4.3821   246.6254   453.1693 </r>
       <r>     4.4369   120.6810   459.7849 </r>
       <r>     4.4918   158.4840   468.4728 </r>
       <r>     4.5466    93.3236   473.5887 </r>
       <r>     4.6014     7.4342   473.9963 </r>
       <r>     4.6562     0.0683   474.0000 </r>
       <r>     4.7110     0.0001   474.0000 </r>
       <r>     4.7659     0.0108   474.0006 </r>
       <r>     4.8207     2.9116   474.1602 </r>
       <r>     4.8755    86.1127   478.8808 </r>
       <r>     4.9303   319.5148   496.3962 </r>
       <r>     4.9851   164.0712   505.3904 </r>
       <r>     5.0400    11.0353   505.9953 </r>
       <r>     5.0948     0.0848   506.0000 </r>
       <r>     5.1496     0.0001   506.0000 </r>
       <r>     5.2044     0.0000   506.0000 </r>
       <r>     5.2592     0.0000   506.0000 </r>
       <r>     5.3141     0.0000   506.0000 </r>
       <r>     5.3689     0.0000   506.0000 </r>
       <r>     5.4237     0.0000   506.0000 </r>
       <r>     5.4785     0.0000   506.0000 </r>
       <r>     5.5333     0.0178   506.0010 </r>
       <r>     5.5881     2.2223   506.1228 </r>
       <r>     5.6430    31.7641   507.8641 </r>
       <r>     5.6978    59.5326   511.1276 </r>
       <r>     5.7526    15.4143   511.9726 </r>
       <r>     5.8074     0.4986   511.9999 </r>
       <r>     5.8622     0.0018   512.0000 </r>
       <r>     5.9171     0.0000   512.0000 </r>
       <r>     5.9719     0.0000   512.0000 </r>
       <r>     6.0267     0.0000   512.0000 </r>
       <r>     6.0815     0.0000   512.0000 </r>
       <r>     6.1363     0.0000   512.0000 </r>
       <r>     6.1912     0.0000   512.0000 </r>
       <r>     6.2460     0.0027   512.0001 </r>
       <r>     6.3008     0.8323   512.0458 </r>
       <r>     6.3556    28.0270   513.5822 </r>
       <r>     6.4104   117.2274   520.0084 </r>
       <r>     6.4652    67.6294   523.7158 </r>
       <r>     6.5201     5.1392   523.9975 </r>
       <r>     6.5749     0.0449   524.0000 </r>
       <r>     6.6297     0.0003   524.0000 </r>
       <r>     6.6845     0.1723   524.0095 </r>
       <r>     6.7393    11.5870   524.6446 </r>
       <r>     6.7942    92.5023   529.7155 </r>
       <r>     6.8490    99.7564   535.1840 </r>
       <r>     6.9038    14.6267   535.9859 </r>
       <r>     6.9586     0.2577   536.0000 </r>
       <r>     7.0134     0.1742   536.0095 </r>
       <r>     7.0683    10.1894   536.5681 </r>
       <r>     7.1231    99.1847   542.0053 </r>
       <r>     7.1779   387.0240   563.2215 </r>
       <r>     7.2327   443.1526   587.5146 </r>
       <r>     7.2875    80.0279   591.9016 </r>
       <r>     7.3423     1.7903   591.9998 </r>
       <r>     7.3972     0.0043   592.0000 </r>
       <r>     7.4520     0.0009   592.0000 </r>
       <r>     7.5068     0.4173   592.0229 </r>
       <r>     7.5616    21.8084   593.2184 </r>
       <r>     7.6164   137.5288   600.7576 </r>
       <r>     7.6713   118.2452   607.2397 </r>
       <r>     7.7261    13.6829   607.9897 </r>
       <r>     7.7809     0.1869   608.0000 </r>
       <r>     7.8357     0.0003   608.0000 </r>
       <r>     7.8905     0.0000   608.0000 </r>
       <r>     7.9454     0.0219   608.0012 </r>
       <r>     8.0002     4.1933   608.2311 </r>
       <r>     8.0550    89.7704   613.1522 </r>
       <r>     8.1098   246.5203   626.6661 </r>
       <r>     8.1646   110.5866   632.7284 </r>
       <r>     8.2194    64.9768   636.2903 </r>
       <r>     8.2743    29.3239   637.8978 </r>
       <r>     8.3291     1.8510   637.9993 </r>
       <r>     8.3839     0.0133   638.0000 </r>
       <r>     8.4387     0.0000   638.0000 </r>
       <r>     8.4935     0.0000   638.0000 </r>
       <r>     8.5484     0.0000   638.0000 </r>
       <r>     8.6032     0.0000   638.0000 </r>
       <r>     8.6580     0.0273   638.0015 </r>
       <r>     8.7128     2.8470   638.1576 </r>
       <r>     8.7676    34.9257   640.0722 </r>
       <r>     8.8225    57.7843   643.2398 </r>
       <r>     8.8773    13.4660   643.9780 </r>
       <r>     8.9321     0.3997   643.9999 </r>
       <r>     8.9869     0.0013   644.0000 </r>
       <r>     9.0417     0.0000   644.0000 </r>
       <r>     9.0965     0.0000   644.0000 </r>
       <r>     9.1514     0.0000   644.0000 </r>
       <r>     9.2062     0.0000   644.0000 </r>
       <r>     9.2610     0.0000   644.0000 </r>
       <r>     9.3158     0.0000   644.0000 </r>
       <r>     9.3706     0.0000   644.0000 </r>
       <r>     9.4255     0.0000   644.0000 </r>
       <r>     9.4803     0.0000   644.0000 </r>
       <r>     9.5351     0.0000   644.0000 </r>
      </set>
     </set>
    </array>
   </total>
  </dos>
 </calculation>
 <structure name="finalpos" >
  <crystal>
   <varray name="basis" >
    <v>       0.00000000      10.93716070      10.93716070 </v>
    <v>      10.93716070       0.00000000      10.93716070 </v>
    <v>      10.93716070      10.93716070       0.00000000 </v>
   </varray>
   <i name="volume">   2616.63878844 </i>
   <varray name="rec_basis" >
    <v>      -0.04571570       0.04571570       0.04571570 </v>
    <v>       0.04571570      -0.04571570       0.04571570 </v>
    <v>       0.04571570       0.04571570      -0.04571570 </v>
   </varray>
  </crystal>
  <varray name="positions" >
   <v>       0.06295716       0.06204284       0.06204284 </v>
   <v>       0.31250000       0.06250000       0.06250000 </v>
   <v>       0.56250000       0.06250000       0.06250000 </v>
   <v>       0.81250000       0.06250000       0.06250000 </v>
   <v>       0.06250000       0.31250000       0.06250000 </v>
   <v>       0.31250000       0.31250000       0.06250000 </v>
   <v>       0.56250000       0.31250000       0.06250000 </v>
   <v>       0.81250000       0.31250000       0.06250000 </v>
   <v>       0.06250000       0.56250000       0.06250000 </v>
   <v>       0.31250000       0.56250000       0.06250000 </v>
   <v>       0.56250000       0.56250000       0.06250000 </v>
   <v>       0.81250000       0.56250000       0.06250000 </v>
   <v>       0.06250000       0.81250000       0.06250000 </v>
   <v>       0.31250000       0.81250000       0.06250000 </v>
   <v>       0.56250000       0.81250000       0.06250000 </v>
   <v>       0.81250000       0.81250000       0.06250000 </v>
   <v>       0.06250000       0.06250000       0.31250000 </v>
   <v>       0.31250000       0.06250000       0.31250000 </v>
   <v>       0.56250000       0.06250000       0.31250000 </v>
   <v>       0.81250000       0.06250000       0.31250000 </v>
   <v>       0.06250000       0.31250000       0.31250000 </v>
   <v>       0.31250000       0.31250000       0.31250000 </v>
   <v>       0.56250000       0.31250000       0.31250000 </v>
   <v>       0.81250000       0.31250000       0.31250000 </v>
   <v>       0.06250000       0.56250000       0.31250000 </v>
   <v>       0.31250000       0.56250000       0.31250000 </v>
   <v>       0.56250000       0.56250000       0.31250000 </v>
   <v>       0.81250000       0.56250000       0.31250000 </v>
   <v>       0.06250000       0.81250000       0.31250000 </v>
   <v>       0.31250000       0.81250000       0.31250000 </v>
   <v>       0.56250000       0.81250000       0.31250000 </v>
   <v>       0.81250000       0.81250000       0.31250000 </v>
   <v>       0.06250000       0.06250000       0.56250000 </v>
   <v>       0.31250000       0.06250000       0.56250000 </v>
   <v>       0.56250000       0.06250000       0.56250000 </v>
   <v>       0.81250000       0.06250000       0.56250000 </v>
   <v>       0.06250000       0.31250000       0.56250000 </v>
   <v>       0.31250000       0.31250000       0.56250000 </v>
   <v>       0.56250000       0.31250000       0.56250000 </v>
   <v>       0.81250000       0.31250000       0.56250000 </v>
   <v>       0.06250000       0.56250000       0.56250000 </v>
   <v>       0.31250000       0.56250000       0.56250000 </v>
   <v>       0.56250000       0.56250000       0.56250000 </v>
   <v>       0.81250000       0.56250000       0.56250000 </v>
   <v>       0.06250000       0.81250000       0.56250000 </v>
   <v>       0.31250000       0.81250000       0.56250000 </v>
   <v>       0.56250000       0.81250000       0.56250000 </v>
   <v>       0.81250000       0.81250000       0.56250000 </v>
   <v>       0.06250000       0.06250000       0.81250000 </v>
   <v>       0.31250000       0.06250000       0.81250000 </v>
   <v>       0.56250000       0.06250000       0.81250000 </v>
   <v>       0.81250000       0.06250000       0.81250000 </v>
   <v>       0.06250000       0.31250000       0.81250000 </v>
   <v>       0.31250000       0.31250000       0.81250000 </v>
   <v>       0.56250000       0.31250000       0.81250000 </v>
   <v>       0.81250000       0.31250000       0.81250000 </v>
   <v>       0.06250000       0.56250000       0.81250000 </v>
   <v>       0.31250000       0.56250000       0.81250000 </v>
   <v>       0.56250000       0.56250000       0.81250000 </v>
   <v>       0.81250000       0.56250000       0.81250000 </v>
   <v>       0.06250000       0.81250000       0.81250000 </v>
   <v>       0.31250000       0.81250000       0.81250000 </v>
   <v>       0.56250000       0.81250000       0.81250000 </v>
   <v>       0.81250000       0.81250000       0.81250000 </v>
   <v>       0.00000000       0.00000000       0.00000000 </v>
   <v>       0.25000000       0.00000000       0.00000000 </v>
   <v>       0.50000000       0.00000000       0.00000000 </v>
   <v>       0.75000000       0.00000000       0.00000000 </v>
   <v>       0.00000000       0.25000000       0.00000000 </v>
   <v>       0.25000000       0.25000000       0.00000000 </v>
   <v>       0.50000000       0.25000000       0.00000000 </v>
   <v>       0.75000000       0.25000000       0.00000000 </v>
   <v>       0.00000000       0.50000000       0.00000000 </v>
   <v>       0.25000000       0.50000000       0.00000000 </v>
   <v>       0.50000000       0.50000000       0.00000000 </v>
   <v>       0.75000000       0.50000000       0.00000000 </v>
   <v>       0.00000000       0.75000000       0.00000000 </v>
   <v>       0.25000000       0.75000000       0.00000000 </v>
   <v>       0.50000000       0.75000000       0.00000000 </v>
   <v>       0.75000000       0.75000000       0.00000000 </v>
   <v>       0.00000000       0.00000000       0.25000000 </v>
   <v>       0.25000000       0.00000000       0.25000000 </v>
   <v>       0.50000000       0.00000000       0.25000000 </v>
   <v>       0.75000000       0.00000000       0.25000000 </v>
   <v>       0.00000000       0.25000000       0.25000000 </v>
   <v>       0.25000000       0.25000000       0.25000000 </v>
   <v>       0.50000000       0.25000000       0.25000000 </v>
   <v>       0.75000000       0.25000000       0.25000000 </v>
   <v>       0.00000000       0.50000000       0.25000000 </v>
   <v>       0.25000000       0.50000000       0.25000000 </v>
   <v>       0.50000000       0.50000000       0.25000000 </v>
   <v>       0.75000000       0.50000000       0.25000000 </v>
   <v>       0.00000000       0.75000000       0.25000000 </v>
   <v>       0.25000000       0.75000000       0.25000000 </v>
   <v>       0.50000000       0.75000000       0.25000000 </v>
   <v>       0.75000000       0.75000000       0.25000000 </v>
   <v>       0.00000000       0.00000000       0.50000000 </v>
   <v>       0.25000000       0.00000000       0.50000000 </v>
   <v>       0.50000000       0.00000000       0.50000000 </v>
   <v>       0.75000000       0.00000000       0.50000000 </v>
   <v>       0.00000000       0.25000000       0.50000000 </v>
   <v>       0.25000000       0.25000000       0.50000000 </v>
   <v>       0.50000000       0.25000000       0.50000000 </v>
   <v>       0.75000000       0.25000000       0.50000000 </v>
   <v>       0.00000000       0.50000000       0.50000000 </v>
   <v>       0.25000000       0.50000000       0.50000000 </v>
   <v>       0.50000000       0.50000000       0.50000000 </v>
   <v>       0.75000000       0.50000000       0.50000000 </v>
   <v>       0.00000000       0.75000000       0.50000000 </v>
   <v>       0.25000000       0.75000000       0.50000000 </v>
   <v>       0.50000000       0.75000000       0.50000000 </v>
   <v>       0.75000000       0.75000000       0.50000000 </v>
   <v>       0.00000000       0.00000000       0.75000000 </v>
   <v>       0.25000000       0.00000000       0.75000000 </v>
   <v>       0.50000000       0.00000000       0.75000000 </v>
   <v>       0.75000000       0.00000000       0.75000000 </v>
   <v>       0.00000000       0.25000000       0.75000000 </v>
   <v>       0.25000000       0.25000000       0.75000000 </v>
   <v>       0.50000000       0.25000000       0.75000000 </v>
   <v>       0.75000000       0.25000000       0.75000000 </v>
   <v>       0.00000000       0.50000000       0.75000000 </v>
   <v>       0.25000000       0.50000000       0.75000000 </v>
   <v>       0.50000000       0.50000000       0.75000000 </v>
   <v>       0.75000000       0.50000000       0.75000000 </v>
   <v>       0.00000000       0.75000000       0.75000000 </v>
   <v>       0.25000000       0.75000000       0.75000000 </v>
   <v>       0.50000000       0.75000000       0.75000000 </v>
   <v>       0.75000000       0.75000000       0.75000000 </v>
  </varray>
 </structure>
</modeling>
