64
Lattice="10.862 0.0 0.0 0.0 10.862 0.0 0.0 0.0 10.862" Properties=species:S:1:pos:R:3:forces:R:3 pbc="T T T"
Si       0.09483178      -0.00622969       0.01284726      -0.00167656       0.13604515       0.53206026
Si      -0.16276782       0.02523186       5.37577216       1.49252978       1.11079215       0.25666671
Si       0.06303231       2.77865788       2.92192393      -0.14558449      -1.03153691      -1.41504286
Si      -0.07867987       2.60257258       8.14077203       1.11620466       0.40910416       0.10573597
Si       0.10976691       5.50630006      -0.03791131      -0.69468933      -0.35700420      -0.51680971
Si      -0.13479123       5.41073627       5.57101161       1.04800890      -0.15333870      -0.24933101
Si      -0.13622858       8.12016857       2.80044347       1.09685193      -0.24400254       0.34490698
Si      -0.13220392       8.10657337       8.10376360       1.68662152       0.97827056      -0.25976751
Si       1.52056010       1.37130360       1.43694952      -1.68173678       1.44396958      -1.04989367
Si       1.39346761       1.29124079       6.78304986      -0.35030698       0.24584084      -0.28604300
Si       1.36470439       4.19436401       4.12136517       0.25420584       0.15462535       0.83630997
Si       1.35405126       4.14203446       9.37203698      -0.57978992      -0.81571442       0.57022115
Si       1.31668664       6.80205865       1.40163694       0.15202535       0.92630655       0.08211570
Si       1.39114066       6.80189217       6.78628107      -1.18349677       0.23735875      -0.36383158
Si       1.24310127       9.64116836       4.06251215       0.57796356      -0.95848562      -0.77581220
Si       1.38956630       9.45824116       9.49538856      -0.48451701      -0.44682193      -0.01579632
Si       2.78236181       0.02334439       2.65899096       0.63030709      -1.37763274       0.84567336
Si       2.77362520      -0.03209481       8.21615332      -0.78299093      -1.09736567      -1.73141191
Si       2.73218707       2.86381583      -0.04135303      -0.28976729      -1.17163654      -0.22162758
Si       2.76699847       2.72752772       5.37932447      -0.87883338      -0.50562070      -0.06270431
Si       2.70956665       5.51094010       2.69301981       0.36179728      -0.42195940       0.19465372
Si       2.69342569       5.46849988       8.09120373       0.97971257       0.03849574       0.22920621
Si       2.74872894       8.09406611       0.02161287       0.33472329       0.02665277      -0.32654606
Si       2.62414830       8.11979883       5.28081168      -0.25157220       0.45207401       0.01173226
Si       4.12698758       1.29337199       4.08724494      -0.66580271       0.12481473       0.22531824
Si       4.03348921       1.28004631       9.48689293       0.59115774       1.52361813       1.01592621
Si       4.08075770       4.08851449       1.36791195      -0.29227117      -0.21942964       0.62998696
Si       3.99590355       4.06028511       6.75253285       1.37059671       0.32702594       0.39604503
Si       4.13130021       6.89141731       3.97624637      -0.41429958      -0.21997161      -0.03579300
Si       4.19681081       6.74607593       9.46009445      -0.98649057      -0.10945054       0.28489017
Si       4.19997392       9.50647662       1.28280274      -0.63721986       0.04623633       0.24812495
Si       3.99970860       9.41606521       6.61422101       0.43013955       0.80630971       1.08435281
Si       5.50358248       0.05548222      -0.05227525       0.02640307      -0.24997919       0.08459647
Si       5.47820949       0.04283409       5.46970762      -0.02525557      -0.87455834      -0.05341096
Si       5.37430284       2.65300666       2.76057076       0.20039234       1.22155140      -0.23436187
Si       5.43795995       2.63882090       8.18263254      -1.05255929       1.29574830       0.36326634
Si       5.42867204       5.26933552      -0.03556674       1.08964173       0.81216489      -0.44019446
Si       5.39197826       5.54027435       5.39494705      -0.22895999      -0.56813822       0.36136570
Si       5.56010400       8.15018863       2.62409310      -0.46228921      -0.00648392      -0.07837133
Si       5.43359514       8.13080397       8.03624418      -1.02429580       0.59850525       0.64449718
Si       6.77187872       1.48683262       1.36022729      -0.02873656      -1.24952733       0.27069676
Si       6.76075123       1.38462453       6.92237365       0.37980772      -1.15300894      -0.82050512
Si       6.72256978       4.14779027       4.05028392       0.07154501      -0.51615156       0.00109210
Si       6.94219943       3.96183444       9.47973698      -1.19989145       0.11477167       0.46806158
Si       6.82508849       6.71705231       1.29036119      -0.33586982      -0.78231493       0.24204876
Si       6.75135008       6.82199185       6.81549726       1.06396417      -0.68121278      -0.82366322
Si       6.79881299       9.50954336       4.01531155      -0.33837486       0.32082176       0.87063948
Si       6.74172483       9.38547813       9.48979515       0.85225034       0.34089178       0.51978408
Si       8.08791887       0.07366411       2.78503166       0.11392688      -0.07454635      -1.29153904
Si       8.12691494      -0.05312061       8.18003645      -0.01151789      -0.26433255      -0.08511625
Si       8.21162563       2.69143048       0.09661411       1.04504498       0.39740939      -0.62904452
Si       7.96666548       2.73024060       5.50619079       0.50166742       0.32559671      -0.56819779
Si       8.18802708       5.35491723       2.64911742      -0.00612671       0.16667024       0.27804828
Si       8.13835654       5.37177787       8.11032164      -0.03911045       1.14827412       0.58029016
Si       8.22217890       8.07656685       0.12602757      -0.23864208       1.48680333      -0.69563543
Si       8.11319528       8.25942070       5.47157022      -0.09489085      -1.14413636      -0.39068403
Si       9.36194229       1.40954565       4.10772738       0.36391589       0.95107694       0.35872484
Si       9.48905330       1.28356502       9.51105580      -0.00548398      -0.14563709       0.93870384
Si       9.70313517       4.07613460       1.35544527      -0.48514527      -0.20132962       0.05856939
Si       9.42124130       3.95898863       6.87664930       0.25907402       0.07606081      -0.82106285
Si       9.41434449       6.70687475       4.16288966      -0.34137311       0.59455450      -0.13717268
Si       9.48398315       6.85022272       9.50156284      -0.29410171      -1.36784850       0.27016293
Si       9.56619003       9.57580635       1.49778193      -0.78228825       0.18303129      -1.05680427
Si       9.52623641       9.56960645       6.71848416      -0.77452101      -0.61229605       1.23170002
64
Lattice="10.862 0.0 0.0 0.0 10.862 0.0 0.0 0.0 10.862" Properties=species:S:1:pos:R:3:forces:R:3 pbc="T T T"
Si      -0.01732674       0.07434702      -0.03007774       0.41000602      -0.04033111      -0.08176724
Si      -0.07790954       0.06023021       5.54916411       0.42049232      -0.03083022      -0.57536939
Si      -0.13179603       2.52846104       2.63871078       0.86123976       0.74753521       1.25009592
Si       0.04991967       2.73922958       8.14541857       0.16724162       0.44376039      -0.51111482
Si       0.02282019       5.36727251       0.07199985       0.45211845       0.18419563      -0.08531133
Si       0.06978355       5.42983200       5.30364176      -0.39982976      -0.35671369       0.59320560
Si       0.00448525       8.25245456       2.62516553      -0.53063557      -0.08461164       1.33722926
Si       0.05946878       8.10987184       8.11813801      -0.42515675       0.31094124       1.22980080
Si       1.45748435       1.44287710       1.39026466      -1.09753058      -1.48376363      -0.21779057
Si       1.42017063       1.40062732       6.81358175      -0.15730741      -0.44823177      -0.01919331
Si       1.40503447       3.97432477       3.98228671      -1.30895411       0.90923626      -0.96020501
Si       1.43219989       4.04693550       9.50244291      -0.02548095       0.82444500       0.11839347
Si       1.32780587       6.91095596       1.43512370       0.96266715      -1.52232627      -0.95494240
Si       1.37144992       6.84667771       6.77154555       0.34495273      -0.82306753      -0.68311923
Si       1.29751455       9.57795539       4.10556204      -0.59521102       0.23058405       0.07433663
Si       1.43743657       9.46868781       9.60332293      -1.23563232       0.64593015      -1.03834089
Si       2.69625102      -0.09612403       2.68355532      -0.96264869       0.31490065      -0.25841589
Si       2.73480274      -0.02758654       8.20248679       0.38535910       0.16285600      -0.06467564
Si       2.75157031       2.76276743       0.09650367       0.18791718       0.29794628      -0.79089465
Si       2.66893246       2.65765670       5.26313419       0.86361324      -0.33351672       1.28601234
Si       2.79951672       5.48704225       2.72277994      -1.62725174       0.53759906       0.53984832
Si       2.81386976       5.49670534       8.10201752      -0.73181657      -0.71560057       0.04287755
Si       2.76381615       8.12157290      -0.01810956      -0.21440076      -0.21978037       0.84107195
Si       2.67689589       8.26075888       5.41614330       0.10692241      -0.72428255       0.06187397
Si       3.97817342       1.23996616       3.95196666       1.05496776       0.37544046       1.25220770
Si       4.06971070       1.33225636       9.66151850       0.34346486      -0.10055070      -0.37367090
Si       4.02236067       4.13564185       1.45439834       1.43811805      -0.47976879      -0.57203679
Si       4.06327369       4.02226335       6.71905953      -0.28014994       0.07647460      -0.14677814
Si       4.05720619       6.86153081       4.10147912       0.31063828      -0.63662188       1.09133776
Si       4.09142279       6.76850701       9.57317644       0.81987770       0.40662805      -0.96044671
Si       4.04229202       9.45119596       1.42574969       0.15099092      -0.03740069      -0.82486986
Si       4.11284404       9.44698879       6.79491232      -0.04644693       1.16123169      -0.19214514
Si       5.46311968      -0.01612027       0.22311244       0.20146983       0.28080794      -1.05004862
Si       5.46741671       0.01636057       5.38001706      -1.11710810      -0.34767198       0.30884565
Si       5.34722585       2.77480336       2.90063582       0.61848861      -0.09448879      -1.50171456
Si       5.34199382       2.75507224       8.19103868       0.40907021      -0.39113538       0.63067041
Si       5.43452612       5.52868574       0.12856710      -0.26119367      -1.31591610      -1.02127881
Si       5.50954995       5.47944766       5.57822017      -1.14788683      -0.01516618      -1.37987773
Si       5.36317779       8.19454776       2.77456591       0.99354808      -0.93395580      -0.54692954
Si       5.51994501       8.20754869       8.14144038      -0.95037063      -1.30295547       0.25565475
Si       6.88409207       1.49194251       1.36167369      -0.94455234      -0.61859948       1.33530689
Si       6.67286453       1.23840032       6.91856754      -0.10303400       1.37068833      -0.65955166
Si       6.77675498       4.18325218       4.09415742      -0.16578908      -0.31832980       0.49532058
Si       6.80848085       4.22845408       9.45235973      -0.70559839      -0.24568561      -0.08552229
Si       6.81853511       6.82117771       1.31749803       0.04393001       0.98982076       0.97438967
Si       6.84609704       6.83948312       6.77584453       0.20868057       0.15022464       0.82549716
Si       6.75425368       9.49177475       4.05102181      -0.07687839      -0.17724166       0.75543586
Si       6.74967524       9.49352162       9.51782805       0.81770337       0.66621855       1.20777525
Si       8.09837557       0.01073685       2.89134241       0.38480165      -0.18341352      -2.53691106
Si       8.10826541      -0.07722373       8.08416536       0.59579048      -0.73347436       0.17317982
Si       8.08170548       2.70086846      -0.18112222       0.86127918       0.05762207      -0.28252339
Si       7.95709335       2.74022454       5.54757065       0.46650774      -0.48430649      -0.42035308
Si       8.10595539       5.34150428       2.56648206       0.53785022      -0.11499288       0.20851332
Si       8.25297051       5.43318847       8.00137336      -0.70387799       0.63041643       1.28901340
Si       8.24521340       8.11204554      -0.02746684      -1.04234835      -0.13849923      -0.75615376
Si       8.12443744       8.14034948       5.40372901       0.40144007      -0.78736510      -1.57206606
Si       9.37441457       1.35959884       4.15306146       0.50219731       0.47317337       0.98153087
Si       9.51355331       1.34909832       9.27080877      -0.36002627      -0.38247324       1.43461905
Si       9.50369452       3.88604965       1.28545439      -0.57626952       0.81325311      -0.45854983
Si       9.47967612       4.02330948       6.76812362       1.27449939       0.01251283      -1.03129134
Si       9.51288072       6.70695339       3.87733971      -0.11154040       0.66938131       0.72149391
Si       9.55056936       6.69193777       9.51714928       0.36189016       0.22357166      -0.46918031
Si       9.49577983       9.47617281       1.27671471      -0.19198686       1.73131856       0.82759614
Si       9.50222653       9.36095013       6.71766330       0.13717946       0.92435494       0.93990599
64
Lattice="10.862 0.0 0.0 0.0 10.862 0.0 0.0 0.0 10.862" Properties=species:S:1:pos:R:3:forces:R:3 pbc="T T T"
Si       0.08140534       0.02322363       0.01608032      -0.74330298       0.82173422       0.03728636
Si       0.04187162      -0.01045469       5.44432701      -0.97272692       0.56769637      -0.11783554
Si      -0.00816780       2.81025479       2.77867566       0.94931250      -0.88555521      -0.14911661
Si      -0.02433818       2.75415327       8.06112731      -0.40479484      -0.01368817       0.50169347
Si       0.02920153       5.35420316       0.02453398      -0.59242587      -0.02181084       0.19474089
Si       0.04475786       5.37764793       5.44466050       0.37551247       1.10026137      -0.24638995
Si      -0.17742338       8.14709337       2.72049131       1.40251890       0.08416026       0.23482085
Si      -0.07590158       8.12426101       8.17866979       0.48080204       0.10732581       0.82133162
Si       1.40500632       1.46387707       1.42079305      -0.78376826      -0.67173274       0.00005838
Si       1.31941249       1.39513018       6.76295362       0.23862981      -0.35663318       0.31557475
Si       1.42282477       4.06084439       4.07459178      -0.33629549       0.58347735       0.02367001
Si       1.33663350       4.07363688       9.46952470       0.11846605      -0.63445007       0.23005639
Si       1.25459034       6.76654578       1.38508724       0.48265222      -0.05259532       0.73353452
Si       1.34708983       6.81876223       6.89229670       0.44226486      -0.64547912      -0.57941438
Si       1.32669661       9.54424834       4.08880495      -0.36534596      -0.54860246      -1.04569847
Si       1.36076573       9.50300315       9.55245651      -0.08041280      -0.38019473      -0.60606139
Si       2.70048968       0.02010731       2.72976582       0.35398480      -0.39084464      -0.39747740
Si       2.66362973       0.02687141       8.15381677       0.29555892       0.09469545      -0.19295487
Si       2.69747363       2.77842758       0.07006185       0.58321974       0.36575657      -0.54252925
Si       2.66179502       2.70804040       5.41491576       0.83854185      -0.12078317       0.48280496
Si       2.77450109       5.41456100       2.74372589      -0.73089205       0.50267641      -0.44943425
Si       2.78655336       5.29979247       8.16702112      -0.14555291       1.33121267      -0.22013055
Si       2.63472247       8.12208101       0.08693889       0.65716030      -0.07543893      -0.40223631
Si       2.64468180       8.21800391       5.41909447       0.31501221      -0.56956537       0.70776322
Si       4.02059734       1.35736344       4.09382621       0.73405699      -0.28677137      -0.21782527
Si       4.02177990       1.41394010       9.50100270       0.27336301      -0.05487027      -0.11345679
Si       4.15150060       4.11754393       1.41810218       0.29602396      -0.39307822      -0.66411079
Si       4.11544289       4.04974310       6.72023065       0.07776980       0.05519533      -0.16470398
Si       4.00203698       6.81548779       4.09972114       0.86813186       0.20891055       0.13306119
Si       4.07086103       6.77060959       9.56391791      -0.64137867      -0.09016872      -0.05521857
Si       4.12392570       9.47310236       1.32529270      -0.14299417       0.29600078       0.49345271
Si       4.06984120       9.58371607       6.73238786       0.02033542      -0.70724259       0.74441684
Si       5.44095144      -0.01243254      -0.11423999      -0.48731922      -0.32208580       0.12696073
Si       5.47053562      -0.10099749       5.31039877      -0.53081699       1.99508820       1.31263054
Si       5.49051550       2.61674691       2.69690032      -0.69207223       0.10315062      -0.23647540
Si       5.46288965       2.73450185       8.11417992      -0.06152597      -0.30603943      -0.00208063
Si       5.52088525       5.46474235      -0.03906180      -0.46988841      -0.38501773       0.44112679
Si       5.50556435       5.43522760       5.36337766      -1.22993019       0.46308232       0.71431671
Si       5.52101199       8.10652066       2.74582921      -1.48728549       0.36439661       0.05551755
Si       5.40261695       8.09086226       8.18546808      -0.73961544       1.02948744      -0.19962494
Si       6.80085853       1.30525409       1.21426460       0.02610602      -0.28372682       1.14194978
Si       6.88480286       1.41516890       6.71837292      -1.23559776      -1.34565569       0.46720350
Si       6.72227846       4.04902728       4.04723290       0.94578876       0.04520552      -0.69150948
Si       6.84924480       4.10645613       9.45281334      -0.44336412      -0.16290234       0.09352928
Si       6.78302510       6.79732087       1.39240010       0.15131497      -0.01452851      -0.66558475
Si       6.71482670       6.80556609       6.85157778       0.94406170      -0.23188318      -0.87604563
Si       6.79815660       9.48007629       4.08501636       1.29619702      -0.67602814      -0.61259046
Si       6.83620693       9.40026885       9.51961244      -0.63680447       0.33956467      -0.29262997
Si       8.17523803      -0.06381263       2.67866143      -0.38489544       0.60389896      -0.31050064
Si       8.08989868      -0.03957875       8.17954262       0.45216139       0.46984314      -0.46801061
Si       8.09861528       2.75713243       0.00718009       1.05518517       0.12974133       0.04175281
Si       8.12487766       2.70081554       5.33223442       0.93057875       0.63057520      -0.02951080
Si       8.11511413       5.52815233       2.72471446      -0.00307420      -1.39894031       0.31667890
Si       8.15721658       5.48380802       8.14567448       0.19837389      -0.19632000      -0.42139802
Si       8.15208277       8.13649273       0.06634184      -0.08076180      -0.64835647      -0.51372939
Si       8.19457813       8.11855002       5.44798558      -0.57426457       0.35010747       0.68196734
Si       9.53772247       1.38100639       3.96642373      -0.29008146      -0.83154582       0.99848737
Si       9.45908330       1.40057986       9.45903408       0.49376976      -0.32020633       0.50335312
Si       9.51409783       4.05856401       1.50828853      -0.93802779       0.77752935      -1.58513859
Si       9.49244517       4.12354507       6.70833581      -0.61859934      -0.52020605       0.34533195
Si       9.47408653       6.75098998       4.09319829       0.43880201      -0.13193199       0.56109144
Si       9.49506163       6.72168626       9.59348685       0.05084654       0.41886898      -0.16512388
Si       9.49405408       9.48310408       1.28415277       0.49464542       0.81817422       0.27258370
Si       9.53319949       9.52483208       6.84170603      -0.43733330       0.01706254      -0.49420012
64
Lattice="10.862 0.0 0.0 0.0 10.862 0.0 0.0 0.0 10.862" Properties=species:S:1:pos:R:3:forces:R:3 pbc="T T T"
Si       0.08417712      -0.02706202       0.11742855      -0.51926241       0.57493480      -1.16140445
Si      -0.03828835      -0.00851658       5.48493485       0.72473306       0.00253673      -0.85138684
Si      -0.13384643       2.72297283       2.68675525       0.65555728      -0.25618276       0.21293306
Si      -0.01675237       2.76427209       8.13177972       0.31459225      -0.31902710      -0.02802953
Si       0.06674385       5.52944199      -0.03271342      -0.20791466      -1.59295351       0.56015787
Si      -0.08311765       5.39510326       5.33217917       0.50104118       0.51193259       1.00301510
Si      -0.04212415       8.15205938       2.71913148      -0.37620177      -0.57366830      -0.03197933
Si      -0.05716389       8.14682846       8.15221818       0.55892955       0.00138166       0.19148127
Si       1.37808400       1.40465188       1.40350086       0.12218960      -0.11584372       0.37089937
Si       1.39086289       1.33877095       6.79520549      -0.53955187       0.48279471      -0.22200596
Si       1.32173076       4.00582663       4.05955669      -0.25723373       0.75150473      -0.87099257
Si       1.37855010       4.10185452       9.55220605       0.16018404      -0.06011790      -0.73023799
Si       1.30797099       6.77609817       1.36506990       0.53824880       0.58882505       0.57539506
Si       1.34018592       6.82612161       6.85697359      -0.29981812      -1.14255452      -0.50295352
Si       1.36499465       9.47029714       3.94396100      -0.21775395       0.45802725       1.74079805
Si       1.29695389       9.48328082       9.49588461       0.58913456      -0.28793575       0.29683013
Si       2.77528020      -0.01993675       2.73561535      -0.51328907       0.71114703      -0.28544222
Si       2.65609975      -0.07841464       8.08962361       0.75095433       0.31241557       0.61352124
Si       2.73623914       2.74850526       0.03316332       0.04564773       0.33299809       0.35320720
Si       2.68776386       2.71566759       5.36360521       0.52814706      -0.72978647       0.08482018
Si       2.70474627       5.46963528       2.68970642       0.48137209      -0.64380841       0.44372242
Si       2.82051252       5.44491053       8.16698995      -1.10388099       0.35656672       0.31655307
Si       2.71366995       8.04692578      -0.02022214      -0.87679253       1.04531058       0.40192922
Si       2.63858086       8.15124746       5.48091967       0.53886859       0.09503625      -0.69069168
Si       4.17346378       1.43280098       3.90662755      -0.56613953       0.34343428       0.76577493
Si       3.97937269       1.35092943       9.53775396       0.57280523      -0.53224962      -0.82210262
Si       4.21494090       4.18572969       1.28198071      -1.91998427      -0.76339718       0.77895740
Si       4.00181843       4.08705417       6.74782576       0.21743698      -0.50432003      -0.05133829
Si       4.08832700       6.74959443       4.17722104      -0.77337582       0.77324664      -0.74707131
Si       4.10744966       6.80603240       9.58060900       1.12505234      -0.43890925      -0.90807974
Si       3.99558213       9.43828801       1.39612043       0.21789099      -0.15166915      -0.61847664
Si       4.10951658       9.52445700       6.70770820       0.20750047       0.22434763       0.05585886
Si       5.35797074      -0.09585410       0.02803147       0.25627170       0.73407437      -0.16702962
Si       5.48445182       0.09422863       5.28069303       0.07277716      -0.66382068       0.63471503
Si       5.51225416       2.80363219       2.58358840       0.49512349      -0.39560051       0.26069308
Si       5.37975850       2.68107385       8.02329601      -0.71940285      -0.53522832       0.70139731
Si       5.53253101       5.31078951      -0.08779029       0.20154015       1.31613296      -0.70992044
Si       5.38506493       5.44791367       5.52360744       1.15089134      -0.00818030      -0.32787523
Si       5.39042089       8.12811289       2.69016686       0.51664667      -0.39325822       0.64931019
Si       5.50187366       8.23981273       8.19717004      -0.99381195      -0.15188471      -0.03760802
Si       6.84918638       1.28946106       1.28801355      -0.10398043       0.27178507       0.40964144
Si       6.81173561       1.32918618       6.81754539      -0.30250110      -0.61360276      -0.06478720
Si       6.80322189       4.14480571       4.06217697      -0.22653772      -0.25696200       0.32674639
Si       6.76067530       3.92596702       9.38671588       0.40682895       0.06925038       0.64438227
Si       6.74993009       6.70404714       1.34089285       0.54311509       0.24040211       0.16562690
Si       6.78296826       6.84588521       6.89091602      -0.20205779      -0.59501574      -0.31800049
Si       6.88995255       9.54533278       3.96632361      -1.63505810      -1.56730642       1.54107929
Si       6.85503548       9.53304301       9.55945038      -0.88477108      -0.99960441       1.00107780
Si       8.19245004      -0.05667398       2.76590794       0.74831929       1.38989569      -1.48903608
Si       8.10988930      -0.01021471       8.31779874       0.65835353       0.65168407      -1.82429242
Si       8.23743328       2.77208127       0.01701643      -1.39809759      -1.32657605      -1.15048211
Si       8.06483795       2.71604040       5.48547303       0.01202532      -0.12905479      -0.87452866
Si       8.25065562       5.42937230       2.71202526      -1.27665005       0.36634229      -0.00321411
Si       8.07623273       5.38400033       8.18806703       1.21401220       0.54828987      -0.07551085
Si       8.18903177       8.07440013       0.01022725      -0.43763125       0.44004896       0.42281439
Si       8.13374995       8.20958173       5.57469273      -0.49067878       0.15245735      -0.84668309
Si       9.44454791       1.35550428       4.13234645       0.10678917       0.11183177       0.06060596
Si       9.50771532       1.35477676       9.48942817       1.11595684       0.25781853       0.97636775
Si       9.47033588       4.11475945       1.27836887       1.35642537       0.81770896       0.46499251
Si       9.42815691       4.03156676       6.73728619       0.52323701       0.84505953       0.55515906
Si       9.36523726       6.84806447       4.13634920       1.17198565       0.17134980      -0.16808233
Si       9.61619442       6.81385358       9.57385882      -1.71040006      -0.40578480      -1.20910511
Si       9.52067270       9.50296579       1.34995924      -0.22858805      -0.22922805       0.13465548
Si       9.51950232       9.53305613       6.87707698      -0.61921953       0.43295941       0.07322915
64
Lattice="10.862 0.0 0.0 0.0 10.862 0.0 0.0 0.0 10.862" Properties=species:S:1:pos:R:3:forces:R:3 pbc="T T T"
Si      -0.02946385       0.05393094      -0.00406228      -0.38105960      -0.49942038      -0.58511512
Si      -0.01944112       0.20174818       5.43018046       1.08425032      -1.77002041       0.05475248
Si      -0.01764425       2.66114196       2.64213260       0.37517124      -0.08536178       0.62133898
Si       0.07014006       2.67402738       8.05997709      -0.07496556      -0.34053308       0.01939875
Si      -0.00187133       5.40382077       0.16350099      -0.24137975       0.33169992      -0.81844511
Si       0.02137685       5.51458365       5.29543290      -0.02397895      -1.05807640      -0.00163901
Si      -0.01701501       8.08314653       2.71384547      -0.05092735       2.24647461      -0.61449928
Si       0.05107867       8.16612417       8.15422366       0.39736121      -0.89339925      -0.01002785
Si       1.37455566       1.35161112       1.27829891       0.14095712       0.39121657       0.16378233
Si       1.61400057       1.31160442       6.81182022      -1.44323288       1.11792573      -0.98758670
Si       1.42086899       4.04871809       3.95972037      -1.02448244       0.86973508      -0.26060632
Si       1.27573822       4.04363793       9.48791541      -0.01815732       0.62803792       0.25225345
Si       1.33247824       6.91648634       1.40858308       0.50145389      -0.85619239      -1.21805219
Si       1.41220091       6.69862101       6.72932377      -0.57815022       0.36675380       0.95551928
Si       1.39146975       9.48007719       3.96720559      -0.33540650       0.81933249       0.91225981
Si       1.35854456       9.64500384       9.39097898      -0.38138778      -0.71186017       1.16625428
Si       2.76953413      -0.04315959       2.53046128       0.22401065      -0.06596649       1.11102938
Si       2.83905341      -0.05219910       8.13260793       0.56058873       0.65292816       0.77894626
Si       2.69392306       2.85728594       0.01415819       0.22002657      -0.52909390       0.30657747
Si       2.77142768       2.79969008       5.30690906      -0.60913807      -0.40388125       1.14668316
Si       2.70629369       5.60879227       2.69197760      -0.27572388      -1.44093049      -0.03548586
Si       2.72800477       5.27683713       8.08666255      -0.91681722       0.73159882       0.48945692
Si       2.66813721       8.22463111      -0.02625105       0.09625314       0.03809997      -0.56509757
Si       2.69818315       8.13823171       5.49518237       0.31782679       0.43207509      -0.96968887
Si       4.01884942       1.35894980       4.13495180       0.91837196      -1.05554546      -0.99118660
Si       4.06503627       1.40864478       9.59479354      -0.19024590      -0.01716300      -0.23307276
Si       4.09237362       4.22659481       1.41232013      -0.39528015      -0.24229412      -0.93873015
Si       4.07197013       4.05915600       6.74159370       0.41130484      -0.16673301      -0.34761079
Si       4.03667851       6.71376548       4.11757510      -0.11750310       0.43379928       1.72455748
Si       3.94093072       6.73925240       9.44137512       0.03079121       1.49348453      -0.78790784
Si       4.23510880       9.42848278       1.28034111      -1.04259135      -0.47630793       0.73846759
Si       4.12846340       9.47489252       6.82310530       0.18170742      -0.91313855      -0.28255682
Si       5.44668407       0.05247173       0.08505063       0.03216689       0.56840723      -0.56755314
Si       5.46407448       0.02596942       5.61820147      -0.56674203       0.41547569      -1.36210931
Si       5.33393578       2.78009433       2.74470868       0.40543536       0.06117396       0.71831899
Si       5.34778101       2.80683149       8.18438676       0.53633501      -1.24638729      -0.11097337
Si       5.32017066       5.58746796      -0.10514338       0.89784255      -1.32505082       1.05384919
Si       5.45878911       5.51449575       5.59412951       0.36272914      -0.02769397      -0.74656318
Si       5.34534410       8.00993619       2.84643924       0.73591952       1.88490994      -0.09074484
Si       5.57033665       8.13517037       8.11218942      -1.47441363       0.34733014       1.29243684
Si       6.72090911       1.39673554       1.46870274       0.55104154      -0.15919182      -0.15567710
Si       6.80120101       1.29961898       6.95988538       0.20814316       1.00179353      -0.06907659
Si       6.76662616       4.18284149       4.09155736      -0.86546690      -1.59179010       1.48709996
Si       6.70914339       4.11651791       9.48393547       0.75490477       0.32807615       0.58881380
Si       6.63028386       6.70005874       1.49944011       0.22241003       0.71893533      -1.64328975
Si       6.93398210       6.78735281       6.94064148       1.04573122      -0.81561274      -0.86940065
Si       6.73310321       9.58071500       4.15442324       0.46307385      -1.29313690      -0.10735394
Si       6.73336848       9.59055023       9.57848277       0.48388229      -0.49443002      -0.56271197
Si       8.11671542      -0.16251593       2.59932973      -0.15994569       0.79967555       0.71905453
Si       8.23330856      -0.07554163       8.18763220      -0.18038952      -0.36695232      -0.05177230
Si       8.05164012       2.68412619       0.01918384      -0.10547400       0.25996627      -0.36849319
Si       8.12077225       2.61565521       5.43683159      -0.41262380       0.36200344      -0.54511803
Si       7.99300178       5.37907290       2.69159045       2.11005191       0.60116582       0.27608584
Si       8.36482264       5.25215953       8.18742170      -0.92172852       0.95989172       0.18766137
Si       7.95514275       8.04931073      -0.00483806       0.13618142      -0.08492048       0.22444944
Si       8.28217712       8.12998978       5.46001315      -1.58576691       0.21434666      -0.42209340
Si       9.45866186       1.29788704       3.95984976      -0.42253320       0.21569573       0.11064868
Si       9.47512626       1.40729517       9.46238287       0.29415986       0.06230954       0.27487029
Si       9.41120927       3.99577221       1.43256878       0.03101133       0.46933029      -0.69470970
Si       9.57528564       4.00582653       6.65212354       0.43828498       0.02591909      -0.19022789
Si       9.52577000       6.88420473       3.96976760      -1.48903555      -1.87193942       0.59057299
Si       9.52143117       6.84011411       9.57209904       0.17051721      -0.78932671      -0.00437014
Si       9.43184358       9.36512450       1.22056118       0.75462456       0.22399659       0.26518309
Si       9.60237406       9.42655890       6.76561088       0.19002612       1.51878605      -0.02077528
64
Lattice="10.862 0.0 0.0 0.0 10.862 0.0 0.0 0.0 10.862" Properties=species:S:1:pos:R:3:forces:R:3 pbc="T T T"
Si       0.04983833      -0.01095138       0.10862749      -0.50202441       0.22008170      -0.55455575
Si      -0.02520180       0.11598935       5.32801053       0.19703230       0.04066000      -0.24388691
Si      -0.01369870       2.75065822       2.72161327       1.67371136       0.87170733       0.04095615
Si      -0.05040683       2.68778429       8.22630103       1.16395049       0.68591293      -0.81370332
Si       0.03410616       5.56219298      -0.04336284       0.02266326      -1.29164633      -0.32760262
Si       0.10082890       5.47113206       5.41450454      -0.55109292      -0.14248710       0.56431483
Si      -0.03389020       8.09597517       2.79399286       0.03021473      -0.36728693      -0.54180684
Si      -0.10672536       8.19653789       8.26163155      -0.71589605       0.59615117       0.05349174
Si       1.38265842       1.28718014       1.48800210      -0.32131081       0.93308564      -0.48517249
Si       1.29331542       1.46460808       6.69928566       0.18636851      -0.08070553       0.35823249
Si       1.53004671       4.14804433       4.13198407      -1.28366904      -0.39210615      -0.70317814
Si       1.38773487       4.02958272       9.55525512      -0.34264117       0.14426010      -0.24153071
Si       1.30441455       6.78142328       1.36510847       1.10914111       0.85094295       0.59959795
Si       1.20974839       6.98552772       6.86057919       0.97911810      -1.43982762      -0.16660394
Si       1.29885374       9.47350618       4.10473848       0.14156638       0.85774897      -0.36855580
Si       1.34811389       9.49884070       9.63096683       0.32176210       0.34717145      -1.56083447
Si       2.72385973       0.00998335       2.80787847       0.08130792      -0.39029096       0.27062589
Si       2.64349666       0.01417893       7.94513362      -0.01595967      -0.27144243       1.57387801
Si       2.71972977       2.59957791       0.00967643      -0.43712651       0.79948316       0.70860942
Si       2.77227892       2.82885823       5.49781804       0.79921082      -0.24187676       0.43579048
Si       2.76906422       5.50233161       2.75427223      -0.34756588      -0.04921717      -0.87551417
Si       2.64674247       5.38466064       8.09000345       0.54151206       0.95564330       0.37728083
Si       2.76297942       8.14988620       0.00011425      -0.50315957      -0.26604988       0.72311274
Si       2.62918077       8.17902884       5.42358549       0.16603788       0.06396746       1.24677916
Si       4.06694776       1.48699042       4.05333680      -0.07975882      -0.62299235       0.34599175
Si       4.01447418       1.34543097       9.47845034       0.22769273      -0.44288851      -0.97054326
Si       4.02866227       4.14514449       1.29285800      -0.12010616      -0.80304953       0.44012324
Si       4.26758149       4.18255854       6.83429067      -0.89859272      -0.89991684       0.51898507
Si       3.98339137       6.88181661       4.14493367       0.88539173      -0.35757220      -0.69059126
Si       4.09846514       6.70177316       9.66236011      -0.05760964       0.02790503      -1.57278387
Si       4.01526266       9.59205145       1.33597875       0.29548430      -0.59961008       0.44111940
Si       4.08874129       9.39563087       6.85151640      -0.27256717       0.76518440      -0.78712344
Si       5.37621121      -0.02798919      -0.05856626       0.06508528      -0.24307542      -0.58647450
Si       5.35393010       0.00007234       5.40746315      -0.43335879      -0.32935531      -0.00362118
Si       5.39410698       2.70001490       2.56526029       0.22211223      -0.18163858       0.00236441
Si       5.53821035       2.72150135       8.29745690      -0.40357912       0.11417106      -0.63955106
Si       5.51702876       5.39349319       0.09202894       0.46162651       0.14381612      -0.39003903
Si       5.43060984       5.42128415       5.30171788       0.42809459       0.51382971      -0.01296974
Si       5.36869351       8.18624364       2.70831795       0.32322583       0.12018741       0.20748485
Si       5.46773527       8.14561400       8.23763130      -0.76362918      -1.60329303      -0.75820317
Si       6.75660174       1.21120294       1.27385721       0.67757692       0.80812957       0.68975319
Si       6.67245436       1.28343664       6.75982983       0.86483424       0.96545768       0.66344866
Si       6.76789788       3.97541609       3.96639727       0.22334271       0.15174952       0.59096627
Si       6.96932606       4.02967326       9.64121916      -1.21593959       0.48457949      -0.73550442
Si       6.85401184       6.78495299       1.43789267      -1.01095097       0.69329287      -0.33245317
Si       6.77532943       6.82854000       6.67391892       0.07021186      -0.41567696       0.91969011
Si       6.77570017       9.52958346       4.12099448      -0.20921203      -0.19188578      -0.63712076
Si       6.78905227       9.46621777       9.45597491       0.06545508       1.35645050       0.23443513
Si       8.18238859      -0.07102844       2.72774177      -0.21807747       0.06891227      -0.69353210
Si       8.12824545      -0.00133321       8.10180035       0.10628209      -0.30421419      -0.46845627
Si       8.22146266       2.65998375       0.03792285       0.84950601      -0.69174087       0.51489704
Si       8.16300022       2.71582608       5.49748466      -0.68605455      -0.55211602      -0.83958124
Si       8.13148587       5.38854686       2.69629568       0.51252519      -0.90932563      -0.34167896
Si       8.12807416       5.36681647       8.12547886      -0.18679900      -0.04000182      -1.02437647
Si       8.04715127       8.16076582      -0.06022174       0.91684570      -0.64297828       1.03146670
Si       8.17826333       8.13445545       5.33803574       0.19777182      -0.08641886       0.30653580
Si       9.49479715       1.45175008       3.94075292      -0.93625526      -0.58026609       1.07119592
Si       9.55562141       1.30701185       9.42811098      -0.78948183      -0.77612017       1.48903449
Si       9.65472487       4.12493749       1.30957561      -1.04821298      -0.12591083       0.05828190
Si       9.58367415       4.01254708       6.76675671      -0.11785487       0.93753624       0.23204040
Si       9.47248550       6.64326352       4.03100975       0.30609737       0.71591187       0.62356957
Si       9.35088582       6.67416482       9.54010938       0.53618090       1.29395178      -0.56344702
Si       9.56787647       9.38997254       1.32662676      -0.85736795       0.44307697       0.21679376
Si       9.52836852       9.59112820       6.61768055      -0.32308597      -0.63797442       1.38014872
64
Lattice="10.862 0.0 0.0 0.0 10.862 0.0 0.0 0.0 10.862" Properties=species:S:1:pos:R:3:forces:R:3 pbc="T T T"
Si      -0.05984015      -0.01205826       0.03656006       0.06017224       1.18067282      -0.29905597
Si      -0.04072881       0.01199936       5.42348404       0.06111210       0.25177988       0.56118092
Si       0.05905268       2.87982080       2.73270630       0.30711420      -1.21079402      -0.69661136
Si      -0.14087285       2.81030178       8.11267669       1.70461570      -0.87185809       0.31833805
Si       0.02396702       5.50227864       0.02386806       1.34228164      -0.65021570      -1.03755226
Si       0.04124984       5.47546057       5.40834688       0.09870455       0.05745592       0.41057895
Si       0.02126933       8.25053386       2.71802825       0.11339681      -0.80681097       0.74563247
Si       0.00534760       8.32610804       8.24466412       0.05445965      -1.01636597       0.33573366
Si       1.48062897       1.37655352       1.30043762      -1.48938046       0.40728142       0.28730342
Si       1.32965011       1.33025533       6.85362321      -0.96717619       0.08883553       0.08382157
Si       1.43255322       4.16859350       4.04394279      -0.11349536      -0.16891664       0.68935102
Si       1.41697080       3.98629285       9.49207607      -1.34716875       1.57357772      -0.68411006
Si       1.32579780       6.83654021       1.35012149       0.27104018      -0.28445508       0.95628911
Si       1.30639600       6.84951214       6.89570767      -0.00726418       0.09723788      -0.35727887
Si       1.36293705       9.59289422       4.11791399       0.49472882      -0.35881248      -0.57865260
Si       1.46521319       9.62141576       9.62086304      -1.31968818      -0.42227650      -0.39927853
Si       2.77138619       0.06360678       2.68558757      -0.33382870       0.38646119       1.24037254
Si       2.70470272      -0.04815253       8.12379311       0.43264500       0.58379836       0.07314037
Si       2.75954532       2.67038013      -0.17438172      -0.41146005      -0.12758160       1.66201603
Si       2.59672803       2.72540159       5.52499605       0.50277010       0.92529924      -0.15309806
Si       2.79650433       5.34055875       2.59152971      -0.89088260      -0.25062593      -1.19644955
Si       2.72824592       5.47850376       8.17071541      -0.26245573      -0.61308787      -0.32593224
Si       2.65528239       8.19548588       0.08044430       0.54984667      -0.15561301      -0.19257894
Si       2.69994812       8.09902222       5.40762518       0.23685400      -0.11013866      -0.15159351
Si       4.00605984       1.54669092       4.13446326       0.24433605      -1.51418004      -0.06038861
Si       4.04115096       1.31694604       9.51172622       0.80553147      -1.53419260      -0.60326313
Si       4.11918994       3.97520526       1.17390817       0.61126169       0.34117969       0.60942919
Si       4.12568035       4.09579660       6.78499813      -0.73373874       0.24377597      -0.29939216
Si       4.03599799       6.65492939       3.87623896       0.48022957       0.84478574       2.29743329
Si       3.96560213       6.83652110       9.55342781       0.28094760       0.25957679      -0.10548452
Si       4.01820065       9.56034919       1.36735547       0.90593769      -0.69341117       0.00883610
Si       4.09304102       9.54106883       6.76272977      -0.32833711      -1.06345593      -0.03500653
Si       5.45297154      -0.14090036      -0.07167769       0.38215232       0.50841551       0.12684333
Si       5.39380091       0.08348099       5.51117294      -0.51172901       0.11612102      -1.40839887
Si       5.46672078       2.61778817       2.71159404      -0.14725214       0.94202100      -0.39642414
Si       5.28773792       2.69262647       8.20094535       1.48784238       0.51697001      -0.35260474
Si       5.42663879       5.50920848      -0.11151288       0.40749548      -0.32482161       0.93065255
Si       5.51033541       5.35953065       5.31612912      -0.02091577       0.36108407       0.27822429
Si       5.34636731       8.14372912       2.76534918       0.63563280       0.63857865      -0.46129827
Si       5.35471424       8.02747889       8.08720654       0.31032758       0.59359625       0.38429428
Si       6.80287427       1.27501383       1.37677588       0.28363544      -0.64721718      -0.32487771
Si       6.70106380       1.36208655       6.81435466       0.67467326       0.70002169       0.47529172
Si       6.91763587       3.96119085       4.03119819      -1.31537304       0.57162883      -0.63681989
Si       6.80805851       4.11868822       9.44285428      -0.58364421      -0.82672384       0.55075610
Si       6.76403647       6.72983432       1.50857117      -0.24409028       0.02813651      -0.72124068
Si       6.84164729       6.73885573       6.83521038      -0.89380333      -0.32562662      -0.65876960
Si       6.71431694       9.56071014       4.13017428       0.28206011      -0.50921749       0.22618473
Si       6.86494432       9.26883970       9.48606689      -0.74030150       0.51934469       0.09149870
Si       8.23663581      -0.09445517       2.77058793      -0.93032698       1.12873823       0.19785348
Si       8.03719702      -0.03688159       8.15502309       0.43162476       0.24546050       0.09478476
Si       8.14050929       2.72047188       0.02119318      -0.22597397       0.61606783       0.22434328
Si       8.14516113       2.67902736       5.36602995      -0.18341325      -1.19867413       1.04673397
Si       8.20960115       5.30648989       2.68965461       0.25973367       1.27068898       0.60733792
Si       8.18270043       5.41509468       8.15933292       0.75600627      -0.46538373      -0.75420163
Si       8.18662682       8.03976205       0.14316233      -0.54033405      -0.48038621      -0.53546748
Si       8.10886968       8.16926859       5.54352673      -0.13916298      -0.15322644      -1.05551622
Si       9.56612680       1.42908801       4.05370796       0.06454697      -0.47408299      -0.48935378
Si       9.40861900       1.46511318       9.41856383       0.15298132      -1.48137367       0.73715848
Si       9.62558277       4.17091510       1.28684512      -1.03510796      -1.35772413       0.31236725
Si       9.51798718       3.98197249       6.63571819      -0.40483380       1.82199927       0.25951529
Si       9.52238300       6.83244707       4.13505229      -0.50430367       0.08501524      -0.71376819
Si       9.52239998       6.72747366       9.56081799      -0.00199524       1.17317993      -0.69051556
Si       9.46642425       9.45760509       1.39358297       0.65044055       0.26861268      -0.50660483
Si       9.45845352       9.50562978       6.81861073       0.29029855       0.74985117       0.05829162
64
Lattice="10.862 0.0 0.0 0.0 10.862 0.0 0.0 0.0 10.862" Properties=species:S:1:pos:R:3:forces:R:3 pbc="T T T"
Si       0.03010457       0.03065116       0.03314581      -1.22817976      -1.06347836      -1.04643280
Si      -0.07194619      -0.11162977       5.45257974       0.41540897       0.36465148       0.13236450
Si       0.01018597       2.72757365       2.84293296       0.90376029       0.59490519      -0.71977545
Si       0.03389814       2.68096103       8.12511510       0.36610267       1.23478566      -0.55468164
Si       0.11000642       5.43378554       0.09139319      -1.15630561      -0.64992344      -0.90753300
Si      -0.06755381       5.57711519       5.44245526       0.62358429      -0.83509631       0.48279175
Si       0.09815227       8.12871779       2.77737754      -0.13498683       0.62526078      -1.02391792
Si      -0.10433819       8.10263629       8.09749761       0.22001416       0.59309327       0.68055217
Si       1.27852572       1.28099300       1.38333080       0.31046390       2.16692782      -0.11770917
Si       1.36945207       1.31866656       6.77301074      -0.84835861       0.28951312      -0.66185618
Si       1.39965105       4.23383316       4.14761549      -1.11573432      -0.52798333      -0.30514588
Si       1.38768090       4.09983724       9.48782429       0.36739711      -0.64244739       0.17209402
Si       1.41913810       6.72872596       1.36500899       0.65476294       0.95963363       0.84931938
Si       1.33317692       6.88543427       6.78642813       0.25297325      -1.00694467       0.39946189
Si       1.43585354       9.54817515       4.11516655      -0.06808977       0.03718205      -0.57268532
Si       1.31899624       9.49689306       9.47946826      -0.46513047      -0.86230971       0.63870288
Si       2.68131954       0.11569137       2.63207267       0.79221052      -1.72633571       0.90395354
Si       2.56113403       0.04774893       8.21569040       1.59410978       0.23038867       0.30699772
Si       2.80646662       2.62212938      -0.01600571      -1.99476956       0.39870683      -0.01311409
Si       2.63889218       2.75538874       5.38463847       0.92967152      -0.09959651       0.68732406
Si       2.79529008       5.45042842       2.78935737       0.25418661       0.46426071      -0.07116868
Si       2.76140290       5.42170537       8.09929951      -0.60402132       0.50944738       0.05659441
Si       2.78265412       8.06389798      -0.05085208      -0.16337420       0.33530308      -0.39078066
Si       2.72436546       8.16239119       5.49934467       0.32651197       0.61145295      -0.13508861
Si       4.02052866       1.38201992       4.04658301       0.30448186       0.14725758      -0.15387143
Si       4.15184213       1.39634782       9.49343256      -0.80392704      -0.74443211      -0.53118846
Si       3.95551876       4.02784316       1.33251888       0.66012053      -0.01927406       0.74493574
Si       4.12152726       4.10493967       6.78728915      -0.77485201      -0.57431413      -0.56872838
Si       4.16523851       6.83241696       4.22072132      -0.47665336       0.18616350      -1.09101184
Si       4.20895797       6.69617569       9.43522809      -1.03287454      -0.46032653       1.24921655
Si       4.07707786       9.55896862       1.26303522      -0.47615690       0.15403110       0.31039380
Si       3.98622363       9.57876323       6.93799496       0.16641872      -0.37872036      -0.75215336
Si       5.46615975       0.10633049      -0.00832311       0.57600880      -0.40045990       0.63170726
Si       5.34857880      -0.01218737       5.43361795       0.26565561       0.05065185       0.00214492
Si       5.41017137       2.65350102       2.58817943       0.20385250       0.44396980       0.92693950
Si       5.40194272       2.71031480       8.10728014       0.46834594       0.27353799      -0.18839773
Si       5.41303242       5.28299929       0.07675879       0.25618227       1.42016456      -0.01953922
Si       5.49689542       5.42262043       5.45709272      -0.79817402      -0.50697374      -0.35356907
Si       5.36889216       8.24117404       2.70255521       0.97929593      -0.29427337       0.47089129
Si       5.36751323       8.10315076       8.13559921       0.70013152       1.07495835      -0.38025504
Si       6.99257901       1.35315330       1.42286594      -1.31023404      -0.40279268      -0.40443511
Si       6.74690632       1.42592385       6.69155454      -0.75272774      -1.33062254       1.24975417
Si       6.69769395       4.06630460       4.07429602       1.09552625      -0.57341556      -0.86437602
Si       6.69952575       4.03897964       9.51817551       0.77316620      -0.65829143       0.16870119
Si       6.81563130       6.78877127       1.40759299      -0.70814905       0.17798248      -0.57798438
Si       6.69584220       6.77852931       6.74230856       1.28765973      -0.05407274       1.56246005
Si       6.88360591       9.57188853       4.09869019      -0.92052552      -0.10040985      -0.55653305
Si       6.69746640       9.57799667       9.45121141       0.20428885      -0.41263980      -0.03986245
Si       8.33327733      -0.05578454       2.64924177      -0.66941074       0.19201748       1.07293457
Si       8.08404566       0.07132139       8.15214489       0.42018195      -0.49924978      -0.94013298
Si       8.16836804       2.66309844      -0.01905736       0.29752825       0.70619748      -0.67007694
Si       8.10026071       2.65143680       5.46631051       1.11807395       1.56424285      -1.27078141
Si       8.19330620       5.41935551       2.67935646       0.10907875      -0.21705812       0.70128514
Si       8.13518005       5.34650299       8.22595442      -0.37938415       1.09570357      -0.26175573
Si       8.07043374       8.17719482      -0.10978601      -0.46098900      -0.38277746       0.41446402
Si       8.06976105       8.10310837       5.46726060      -0.66190789      -0.89356670      -1.68596912
Si       9.56387838       1.34871229       4.07659922      -0.61116779      -0.39294235       0.65198582
Si       9.56882036       1.40748028       9.42129496      -0.59072611      -0.93422996       0.96751454
Si       9.56229370       3.98340682       1.34602566      -0.16140483       0.52518124       0.16742457
Si       9.50581943       4.12933030       6.81002419      -0.00558145      -0.85443285      -0.34821079
Si       9.54757427       6.87264983       4.07246946      -1.19299887      -0.36539801      -0.41294796
Si       9.50141022       6.78105121       9.57573247       0.17467856      -0.61449329      -0.23609368
Si       9.45353477       9.40607122       1.26127565       1.51318759      -0.07939853       0.26831058
Si       9.35617563       9.34238771       6.69099843       0.98177380       2.13110887       1.95654352
64
Lattice="10.862 0.0 0.0 0.0 10.862 0.0 0.0 0.0 10.862" Properties=species:S:1:pos:R:3:forces:R:3 pbc="T T T"
Si       0.13972464      -0.07767766      -0.02401184      -0.08049290       0.01555968       0.94131876
Si      -0.11502630      -0.10354019       5.42526139       0.53115870      -0.06333439       0.13537070
Si      -0.04173266       2.76354601       2.67171614      -0.09988681      -0.07391717      -0.27567921
Si      -0.01122427       2.66678479       8.31192969       0.60184587       1.18581775      -1.57978781
Si       0.02053959       5.40135327      -0.06529639       0.08837037       0.75224908       0.50927807
Si      -0.07199244       5.39120317       5.35780749       0.26163228       0.00313210      -0.42940158
Si       0.04566439       8.15982574       2.80737188      -0.14049412      -0.22464059      -0.25921405
Si      -0.03749289       8.16280406       8.18591624      -0.41734158      -0.80935607      -0.98669121
Si       1.38289010       1.41448081       1.36846012       0.23933035      -0.48121268       0.25684603
Si       1.19380540       1.35642341       6.78024427       0.43800583      -0.39752250       0.13776029
Si       1.35837628       4.09572977       3.98945458       0.31288174       0.43075333      -0.27929618
Si       1.39111722       4.17310934       9.42414940       0.47393550      -1.16841768       0.73694863
Si       1.37735633       6.82304809       1.32752747      -0.40601481      -0.10336512      -0.07652032
Si       1.24559994       6.70023664       6.69993173       0.46732885       0.84052447       1.26614143
Si       1.46671007       9.62296720       4.02043721      -0.29984737      -0.82894841       1.06704008
Si       1.39030308       9.44985275       9.42000594       0.65985167      -0.26524135       0.74585842
Si       2.90310660       0.12430992       2.78471215      -1.37807346       0.21893155      -0.52637814
Si       2.68460706      -0.07043052       8.05437385      -0.90915076       0.24181955      -0.78831382
Si       2.74318909       2.70385292      -0.01416004      -0.72771341       0.07678872      -0.83193603
Si       2.58010377       2.74103730       5.45762127       0.66368171      -0.39463251      -0.34754694
Si       2.82762069       5.52070871       2.60574457      -0.56080440      -0.56934239       0.78445974
Si       2.75723689       5.50753691       8.14832556       0.15567949       0.21461810      -0.90313589
Si       2.80883273       8.15432510       0.02459753      -0.52545142       0.19613056      -0.51073440
Si       2.70427911       8.14931834       5.57953798      -1.31796296       0.23064369      -1.25084009
Si       4.18538905       1.38843244       4.18813215      -0.52690465       1.20461863      -0.46417238
Si       3.92932687       1.24137965       9.38725331       0.74831726       1.51327361       0.69400392
Si       4.10944260       4.01893631       1.28189959      -0.56744642      -0.37681276       1.11774050
Si       4.05860920       4.09599372       6.68625864      -0.12924802       0.32033204       0.64289840
Si       3.98860101       6.96173321       4.10960749       0.13193835      -2.07606352       0.81450411
Si       4.20263986       6.87010766       9.47111266      -0.69702806      -0.73675328       0.56219124
Si       4.05004484       9.61281060       1.36402303       0.72144665      -0.51372530      -0.13364972
Si       4.06959069       9.54312664       6.69406062       0.86916013      -0.10048638       0.88835316
Si       5.36407432       0.06452787      -0.10447747       0.73514949      -0.78630365       0.46437424
Si       5.49546617       0.02323046       5.43937132       0.35030456      -0.05296188       0.51978511
Si       5.49762241       2.68855864       2.62853359      -0.46837916      -0.15045445       0.57970610
Si       5.33034240       2.76378149       8.18604943      -0.52219140      -0.61334433      -0.79135721
Si       5.38177657       5.30519860       0.00603146       1.32778055       1.83309816      -0.64425696
Si       5.52921640       5.45821701       5.40290879      -1.77472385       0.31911757      -0.34640122
Si       5.30299341       8.17576212       2.83024695       1.32165909       1.28136194      -1.20051934
Si       5.47027241       8.17543213       8.07690425       0.59861180       0.43582631       0.05708487
Si       6.83637045       1.32177463       1.28301240      -0.62067758       0.15457280      -0.15301837
Si       6.73671622       1.43502866       6.85871051       0.69047478      -0.49896031       0.29721389
Si       6.70044138       4.04210628       4.08050581       1.54442177      -0.24285251      -0.49032644
Si       6.75013059       4.03146701       9.44451462       0.07273877      -0.15003052       0.91230763
Si       6.69798743       6.78061533       1.50546744      -0.57314383      -0.20265084      -0.75958966
Si       6.81187769       6.65296091       6.85053292       0.42534036       0.82833600       0.18318063
Si       6.81250836       9.51198451       4.12147281       0.40623538      -0.16153990      -0.57315447
Si       6.87347969       9.46294364       9.58706364      -0.91285411       0.09101943      -0.27722949
Si       8.18928181       0.09030383       2.68458145      -0.46429885      -1.21786286       0.19737286
Si       8.17202539      -0.02952703       8.22731684      -0.40003529       0.78328328      -0.32617358
Si       8.12489385       2.67902376      -0.07492726       0.50289576      -0.15922038      -0.17318103
Si       8.17109589       2.73671445       5.48134169       0.14260905      -0.00235674      -0.22395488
Si       8.12833991       5.39214500       2.65961460      -0.73469125      -0.43674545       0.43704518
Si       8.18385107       5.35658498       8.26545496      -0.14440368       0.67248006      -0.71793171
Si       8.10751520       8.11344336       0.16929871       0.37324808      -0.15204194      -0.28398847
Si       8.16505687       8.06056411       5.47513396      -1.43639579      -0.45369447      -0.52612943
Si       9.56010577       1.30847032       4.03195634      -0.44657135       1.20754870       0.70373073
Si       9.66016042       1.26516643       9.56173463      -1.64667363      -0.11455743       0.41724629
Si       9.44235865       4.11873495       1.23846637       0.39253312      -0.62223769       0.32605532
Si       9.58471102       4.15681571       6.87479464      -0.46991866      -1.50118434      -0.01106222
Si       9.36768010       6.71541324       4.04614475       1.35406080       0.63070014      -0.05316137
Si       9.47368388       6.78738303       9.54646485      -0.04425389       0.43396711       0.57187193
Si       9.55492417       9.52214709       1.40960931       0.15329390      -0.19318116      -0.16721023
Si       9.32180129       9.40570112       6.81815982       1.68715150       0.77944859       0.39425553
64
Lattice="10.862 0.0 0.0 0.0 10.862 0.0 0.0 0.0 10.862" Properties=species:S:1:pos:R:3:forces:R:3 pbc="T T T"
Si      -0.07916962       0.01004876      -0.13855087       0.86170761      -0.40685239       1.27922637
Si      -0.05149296       0.01079347       5.48649296       0.43670048      -0.32672056      -1.29138270
Si      -0.09349805       2.66452388       2.67102303       0.41692022       0.99604097      -0.36654661
Si      -0.00467814       2.59481458       8.14735018      -0.15343055       0.85414143      -0.29923889
Si       0.01120168       5.38275438       0.02224047      -0.07153084      -0.01369958      -0.29872562
Si      -0.05552143       5.39466119       5.46030689      -0.52429388       0.55446011      -0.12098658
Si       0.05265932       8.06143662       2.69356746       0.28234781      -0.10081778       0.45645744
Si       0.01470398       8.27297573       8.24105804       0.31335800      -0.12333856       0.14279206
Si       1.26846304       1.39601660       1.27470252       0.28417842      -0.50366744      -0.23767768
Si       1.35050027       1.30454705       6.73644438       0.41171777       0.19066491       0.85050474
Si       1.25702181       4.10708924       4.00032372       0.22463706      -0.18239439       0.10448818
Si       1.31422544       4.09514497       9.42497947      -0.16532267      -0.44628908       0.12207506
Si       1.37834002       6.69972842       1.34873647       0.51453995       0.56329401      -0.16179621
Si       1.20081356       6.82312593       6.87966645       1.34630001      -0.30843218      -0.61553705
Si       1.30553942       9.43931826       4.10750682       0.25405288       0.76737264      -0.40786835
Si       1.52215366       9.63138514       9.53733130      -0.66537595       0.01157975      -0.65271465
Si       2.63543046      -0.02321490       2.64186541      -0.18055220       0.49329435       0.88353511
Si       2.88190104       0.11659748       8.12560703      -0.56695433      -0.36713390       0.11953123
Si       2.64280899       2.71591588      -0.13058982       0.40833438       0.26349691       1.04149203
Si       2.57423424       2.80256119       5.46726864       0.87102609       0.00309626      -0.21677724
Si       2.75204127       5.40000985       2.70372004       0.17654548       0.18980993       0.43184366
Si       2.71250099       5.47954804       8.24024004       0.02689102       0.67839566      -0.92707149
Si       2.74727079       8.20099313       0.02766941      -0.07387921      -0.09170447       0.57244474
Si       2.70916310       8.17731626       5.44474204       0.35140196      -0.94560221       0.65907672
Si       3.98379926       1.31322884       4.18998956      -1.06714737       0.45868152      -0.98319042
Si       4.16874807       1.39086702       9.58137604      -0.09746173      -0.07561923      -0.18889530
Si       4.06372328       4.07318354       1.30333846       0.07103661      -0.22171527      -0.41274229
Si       4.09824553       4.11241970       6.85330687      -1.25165077      -0.82785642       0.52132351
Si       4.20269288       6.74024107       4.09737233      -1.51423613       0.30212183      -0.03358945
Si       4.08109119       6.92939012       9.49888896       0.41728132      -0.32077569      -0.54196533
Si       4.13558517       9.55229860       1.41963569      -1.09572203      -0.43095045      -0.12831977
Si       4.14159467       9.47906439       6.88114154       0.15361888      -0.10895636      -0.91691071
Si       5.45776584      -0.02330608       0.10452679       0.73454716       0.69258084      -0.85222840
Si       5.38836382      -0.05994964       5.31858874       0.26271855      -0.10563836       1.16652831
Si       5.31087127       2.63672017       2.76635774       0.16629633       0.29577468      -0.19801796
Si       5.48688164       2.69133608       8.14948075       0.08387708       0.16395264      -0.12571193
Si       5.42863405       5.51883828      -0.09238466       0.03997393      -0.17384297       1.06869478
Si       5.38111335       5.22041319       5.37657778       1.17583811       1.51780044       0.32952306
Si       5.41285414       8.14604935       2.68627645      -0.19236743      -0.58880343       0.31388584
Si       5.64621881       8.12677233       8.09659314      -0.92994699      -0.19214525       0.31906350
Si       6.80670334       1.44386004       1.41562569      -1.06000325      -1.40457476       0.50886409
Si       6.77161043       1.34335871       6.67749023      -0.18089097       0.06392998      -0.07743192
Si       6.76949266       3.95992511       4.05786962      -0.04395212      -0.09350946      -0.18030284
Si       6.80408735       4.09200139       9.52174132       0.23651557       0.06253761      -0.15871783
Si       6.79488777       6.86797603       1.40192672       0.31243891      -1.12971156      -0.70335636
Si       6.89498016       6.67930403       6.71134021      -0.55534327      -0.31593631       0.12569790
Si       6.71349068       9.42217393       4.01837226       1.15367323       0.87711376       0.16523338
Si       6.84821661       9.55282302       9.51444269       0.32555885       0.13431431      -0.12823609
Si       8.13506146      -0.07320283       2.59405436       0.29061277       0.24912264       1.31225061
Si       8.16570749       0.03173809       7.99445675      -0.15460105      -0.01157104       1.08999508
Si       8.08234901       2.72236089       0.13681427       0.13112218       0.18841547      -2.22421754
Si       8.18964821       2.81042196       5.49113961      -1.30387986      -2.14377366      -1.81562905
Si       8.10736343       5.38151426       2.79744140      -0.13333198       0.85517994      -0.65526358
Si       8.25784322       5.44985273       8.20096599      -0.48918480      -0.15396187       0.02157061
Si       8.20265121       8.18095838       0.03614048       0.07081308      -0.07027193       0.11102176
Si       8.14349904       8.21471512       5.47660497      -0.44025403      -0.64458017      -0.99513289
Si       9.52066682       1.36378654       4.05454999      -1.12364358      -0.53218110       0.43584594
Si       9.44601352       1.38682517       9.52510995      -0.91996982       0.05411300      -0.44447424
Si       9.39742494       4.09391299       1.29040712       0.96919421       0.34249533       1.41662246
Si       9.40558761       3.98820990       6.81046510       2.24557055       1.30313131       1.30253154
Si       9.45340999       6.88428813       4.04322094       0.13945076      -1.07709621       0.64850860
Si       9.59263466       6.81154150       9.56336751      -0.32448404       0.33104538      -0.02976489
Si       9.65805202       9.45049777       1.41501491      -0.75447763       0.62104598      -1.17216969
Si       9.53982230       9.47149912       6.74266962      -0.12690880       0.36112050       1.04196328
64
Lattice="10.862 0.0 0.0 0.0 10.862 0.0 0.0 0.0 10.862" Properties=species:S:1:pos:R:3:forces:R:3 pbc="T T T"
Si       0.05654814      -0.05883784      -0.08846742       0.48604274      -0.33222546       1.01814075
Si      -0.05205125       0.13761783       5.49009036       0.73042654      -0.83324416       0.05176504
Si      -0.19097926       2.77109605       2.82258456       0.34063230      -0.85749683      -0.42149092
Si       0.00253582       2.70114379       8.18875337       0.47786140       0.65381644      -0.42983324
Si      -0.08687396       5.56011606      -0.00919773       0.59128310      -0.32190978      -0.06307506
Si       0.09493889       5.32258170       5.38302331      -0.30740874      -0.05148422      -0.12257819
Si      -0.01686736       8.04039902       2.74461898      -0.66173513       1.06398706       0.24808947
Si       0.02900209       8.20695008       8.05082100       0.09770472      -0.48173354       0.66890760
Si       1.20416849       1.39223664       1.43898516      -0.88033415      -0.45030963       0.24123411
Si       1.39711163       1.41283338       6.85556910       0.15351299      -0.69130392      -0.07809984
Si       1.41863327       3.91502728       3.94742272       0.51608200       0.87157536       0.95386714
Si       1.31146409       4.05478611       9.62932103      -0.21838444       0.79013206      -0.75077879
Si       1.30482524       6.86091374       1.34714619       1.14081303      -0.66033506      -0.40750810
Si       1.40627835       6.75986513       6.74056561      -0.30713235      -0.14941657       0.29198892
Si       1.25168669       9.55853459       4.04956149      -0.19933393      -0.04574327       0.53024159
Si       1.46451521       9.56221808       9.37525432      -0.13014280      -0.18431312       0.13646912
Si       2.59112002       0.10452102       2.77413506       0.04140221      -0.42743443      -0.20707525
Si       2.91454863       0.07461510       8.14154087      -0.68083505       0.48781730       0.23037369
Si       2.53862754       2.61845715       0.09911076       0.93886540       0.41562523      -0.75024348
Si       2.76443005       2.56460152       5.41993707       0.37734401       1.01285519      -0.22192288
Si       2.75097863       5.39759976       2.62979949      -0.50446641       0.01523026      -0.09528854
Si       2.74568607       5.39788044       8.19943063      -0.86404424       0.49381638       0.47340755
Si       2.71461299       8.25797748      -0.00207236      -0.47248553      -0.93557379      -0.38649019
Si       2.67329071       8.22747295       5.39396495      -0.09576191      -0.19638344       0.35210082
Si       4.15060819       1.17206500       4.09018277       0.13985419       1.13372467       0.00446264
Si       4.14983110       1.53518640       9.56868992      -0.52999858      -1.07264120       0.12142128
Si       4.02409034       3.93330226       1.27026039       0.24599599       0.33729193       0.82544758
Si       4.03273704       4.05854893       6.88452658       0.72322675      -0.69665034      -0.95193975
Si       3.96965271       6.81599850       4.05884516       0.57167878      -0.32604514       0.33405752
Si       4.07819633       6.82197762       9.52630441       0.65422351      -0.25280414       0.24525602
Si       3.88760257       9.69113084       1.32039723       1.11037107       0.13558937      -0.08848345
Si       4.09593953       9.41003227       6.88858426       0.40082868       0.87733478      -1.46926806
Si       5.47586941      -0.04994957      -0.14209646      -0.55538265       0.15947585       0.47720055
Si       5.56488242      -0.02385176       5.47935415      -0.79986422      -0.82128495       0.37163647
Si       5.44779079       2.59830725       2.62908108      -0.15275195      -0.60707927      -0.20559285
Si       5.53670246       2.72811490       8.19485373       0.17265101       0.83270016      -0.30032153
Si       5.42125319       5.30245899       0.03579820       0.56849458       1.12581656      -0.45715346
Si       5.40417019       5.41199899       5.47803041      -0.20678172       0.04731152      -0.58831647
Si       5.18849751       8.31652199       2.71873819       0.61302621      -0.46605184       0.16722076
Si       5.53895707       8.15644382       8.11427655      -0.93655729      -1.75753703      -0.01929892
Si       6.90780937       1.27583967       1.15127945      -0.71783944       0.43873487       0.90619003
Si       6.85717976       1.35052440       6.80838274      -0.22288174      -0.09874885       0.66037295
Si       6.71952007       3.99176708       4.00651647      -0.24481035       0.77508321       0.23947530
Si       7.00487761       4.09961827       9.51234101      -1.61241508       0.81456010      -0.72872439
Si       6.65396052       6.85611024       1.53983633      -0.96689110       0.03151231      -1.23543872
Si       6.85660274       6.75208553       6.78453621       0.00440415      -0.21427214      -0.07629496
Si       6.77611367       9.49907264       4.03136885       0.16462552      -0.14888301      -0.26977928
Si       6.82243123       9.36644585       9.44532548       0.83138011       1.58854289       0.65898107
Si       8.16683792      -0.01725298       2.63661756      -0.13479844       0.36018583       0.81678956
Si       8.26688993      -0.02423605       8.14642666      -1.45010872       0.20298592       0.66003967
Si       8.21037672       2.76633917      -0.05810943       1.65404467      -1.21336537       0.43335731
Si       8.06561209       2.76233218       5.45652788      -0.39642528      -0.12090604      -0.30854396
Si       8.02086762       5.43478108       2.63731925       0.82494076      -0.42469407       1.13015908
Si       8.33634984       5.47756151       8.16060215      -0.68908813      -0.07193608      -0.42716267
Si       8.05318944       8.19050151       0.17738470      -0.13817260      -0.44399379      -0.47698884
Si       8.15116586       8.14529453       5.40291847       0.20203267       0.10365223       0.05708748
Si       9.37482622       1.35968203       4.20704193      -0.04705505       0.03507658      -1.19650064
Si       9.67176464       1.25377425       9.44120457      -1.50329825       1.00498053       0.76244795
Si       9.54756289       4.14503585       1.37027398      -1.05022364       0.10129874      -0.40023521
Si       9.49489219       3.97180620       6.73812092       1.00116313       1.05360360       0.53404295
Si       9.46294190       6.70012779       4.08238963       0.11268817      -0.31807888       0.06668490
Si       9.42452183       6.96585598       9.56477480       0.73163095       0.05308335      -0.33568734
Si       9.53385201       9.52296869       1.35306392       0.70996743      -0.42684700       0.08884860
Si       9.50084268       9.57107138       6.80213167       0.34821017      -0.91667390      -1.28765052
64
Lattice="10.862 0.0 0.0 0.0 10.862 0.0 0.0 0.0 10.862" Properties=species:S:1:pos:R:3:forces:R:3 pbc="T T T"
Si      -0.11499000      -0.14881818      -0.04113929       1.08150965       1.20264876       0.17918972
Si       0.08857786      -0.11529385       5.42631567      -1.13274828       0.27935777      -0.06562169
Si      -0.03496443       2.63501268       2.65190952       0.32788071       0.56304102       0.96637521
Si      -0.02936293       2.75539938       8.05421774       0.06176643      -0.17787801       1.15408110
Si       0.02801559       5.41219463       0.03056252      -0.00390543      -0.31415867       0.38856813
Si       0.00827935       5.33554770       5.40189472       0.44419653      -0.06839968      -0.29386962
Si       0.10441291       8.18096685       2.68607627      -1.34522522       0.41208714       0.80923884
Si      -0.04042252       8.13407487       8.12217997       0.25682973       0.06335236      -0.38512220
Si       1.38258847       1.38198833       1.35487429      -2.26354939      -1.18703451      -0.71212934
Si       1.28003826       1.34891809       6.74148453       0.61949359       0.08259432       0.63715506
Si       1.45726839       4.01652104       3.95440691      -0.76534887      -0.35596690       0.70696333
Si       1.39607513       4.11190751       9.46817858      -0.42284750      -0.96602109       0.36016722
Si       1.34675645       6.81965099       1.40044698       0.43968927      -0.64815414      -0.90184697
Si       1.32118645       6.69219802       6.82873267       0.13104861       0.43619851      -0.58820286
Si       1.47572837       9.53460614       4.01542659      -1.06212721      -0.79226207       0.48093169
Si       1.33053362       9.45254177       9.45724102      -0.28409235       0.67381424      -0.22830922
Si       2.58842873       0.04811041       2.66314765       2.08298119      -0.01737735      -0.04833440
Si       2.68209198       0.13076969       8.25792011      -0.14667784      -0.86885362      -0.98941995
Si       2.63343229       2.62609196       0.03395820       1.29298241       1.13526812      -1.25394459
Si       2.74069693       2.59790873       5.42598546      -0.08450968       0.77657902      -0.24890155
Si       2.74717988       5.39219824       2.60886809      -0.25949161       0.21436109       0.11047457
Si       2.79059739       5.31475834       8.08670372      -0.17763149       0.66311130      -0.16180270
Si       2.62167513       8.09439478      -0.10508592       0.83863942       0.02784391       0.69598257
Si       2.66340653       8.17225437       5.42963716       0.58929761      -1.23605976       0.12457923
Si       4.06396421       1.30960657       4.03562402       0.28455271       0.18833831      -0.27710154
Si       4.15310644       1.32095673       9.58024900      -0.48470682       0.49005475       0.20353124
Si       4.03578955       4.06760913       1.25468290       1.25172876      -0.14071962      -0.07702713
Si       4.15401139       3.96570272       6.78129040      -0.39552399       0.36267354      -0.61522003
Si       4.03575060       6.67872543       4.01347848       0.63455507       1.16806280       0.95320021
Si       4.03608054       6.81545054       9.36814197       0.25452011      -0.04751674       0.38339741
Si       3.98233386       9.57418400       1.25272002      -0.08846545      -0.90287031       0.53750750
Si       3.99539718       9.57485256       6.76693160       0.08579443       0.06896867       0.72396529
Si       5.49178103      -0.02280272       0.04602434      -0.09994635      -0.21916154      -0.36767406
Si       5.40812949      -0.00920324       5.41807088       0.03079994      -0.26092562      -0.01683038
Si       5.47597747       2.83564392       2.87169634      -0.64191072      -0.08380392      -0.93692867
Si       5.41698813       2.68086630       8.17702485       1.05653221      -0.14933143       0.12102113
Si       5.48792592       5.48050781      -0.21515091      -1.02637630      -0.52759718       1.05875738
Si       5.50235029       5.51694155       5.57569758      -0.84330007      -0.38451850      -0.74401393
Si       5.40125802       8.20064197       2.69818945      -0.81814579      -0.32517014      -0.04323801
Si       5.42395014       8.27744098       8.19564178      -0.04640579       0.05910896      -0.65417569
Si       6.69662808       1.40081143       1.37268957       0.46982433       1.43989921       0.10672729
Si       6.80628508       1.28846589       6.78572104      -0.74123116       0.17070048       0.45213741
Si       6.87469838       4.15609597       4.26952093       0.16855595      -0.31667161      -0.72282814
Si       6.89662129       4.10554579       9.43585469      -0.72983719      -0.22165928      -0.38484808
Si       6.65333017       6.71643947       1.38132892       0.44252925       0.26707242      -0.12169046
Si       6.82414666       6.90644922       6.83828310      -0.05667168       0.42891548       0.20187879
Si       6.77585136       9.47897729       4.09599113       0.45909286       0.52521215      -0.36093173
Si       6.89834096       9.51028415       9.55523480      -0.84430745      -0.41084307       0.46734625
Si       8.07852158       0.23006434       2.77456713       0.28461904      -1.89198634       0.00569794
Si       8.12595168       0.03176550       8.23320764       0.22643077       0.10401695      -0.65627975
Si       8.16185365       2.82125395      -0.01389424      -0.41918786      -1.10967812       0.55901528
Si       8.18941416       2.63204844       5.52675906      -0.20677697       0.82012165      -0.16239490
Si       8.16640950       5.43961289       2.68423155      -0.70643921       0.31346707       0.98068215
Si       8.16913577       5.51278899       8.12944123       0.43835762       0.20473945       0.16654615
Si       8.08147777       8.06156341       0.09260813       1.00101019       0.10217221      -0.08699500
Si       8.23083841       8.13239939       5.39229392      -0.66240645       0.19381659       0.09433339
Si       9.53102589       1.37379698       4.15480145       0.68404670      -0.38347842      -0.08669404
Si       9.47257033       1.37293813       9.53880278       0.71320239       0.47677014      -0.19767863
Si       9.46485408       4.04920064       1.44486897       0.72299501       0.23052302      -1.02196793
Si       9.45414046       4.10189383       6.80686368       0.12287163       0.04046865      -0.31908284
Si       9.56038872       6.75552497       4.07525003       0.45314059       0.28105619      -0.58395812
Si       9.61961476       6.78181698       9.53368427      -1.28732899       0.15318392       0.41167083
Si       9.45561507       9.55050538       1.42907674      -0.76131255      -0.45346992       0.48997918
Si       9.41626228       9.53473071       6.82455746       0.85696091      -0.15803254      -0.21603729
64
Lattice="10.862 0.0 0.0 0.0 10.862 0.0 0.0 0.0 10.862" Properties=species:S:1:pos:R:3:forces:R:3 pbc="T T T"
Si      -0.03025380       0.10917513       0.00840307      -0.08190750      -0.64010269       0.09951198
Si       0.08938957      -0.04084169       5.50625725      -0.50640182       0.32718977      -0.13045339
Si       0.01736617       2.74455389       2.74489214       0.32740915      -0.03493997      -1.23430639
Si       0.04495302       2.71695942       8.12196644      -1.20221173       0.25546946       0.72119646
Si       0.00420881       5.38636401      -0.09556422       0.88293659       0.08810249       0.30584490
Si      -0.13737398       5.39305794       5.37293032       1.21438259       0.64905702       0.08219512
Si      -0.02424452       8.18679325       2.66603823       0.30030111      -0.24517153       0.53109467
Si       0.13105709       8.19089733       8.12040114      -1.38887129      -0.71976355      -0.20200364
Si       1.40899780       1.32401109       1.40159858       0.00152446       0.54007532       0.24015912
Si       1.40473649       1.43772085       6.87502848       0.02339048      -1.29655298      -0.60396471
Si       1.28093136       4.06165864       4.11143829       1.20920254       0.06505502       0.11098482
Si       1.46761597       4.00688837       9.49684395      -0.61586044      -0.48899693       0.75934918
Si       1.29817031       6.72600837       1.39792900       0.28737541      -0.08049957      -0.17311347
Si       1.30965218       6.68517171       6.78411388      -0.13406199      -0.51405004       0.56347290
Si       1.36761291       9.29530411       4.25704653       0.15549291       0.87579283      -0.92306997
Si       1.29749947       9.48896239       9.58749333       0.25010903      -0.09478211       0.82046510
Si       2.72007114      -0.00371392       2.87233262      -1.88961762       0.28215031       1.05303157
Si       2.57923110      -0.09618648       8.19484960       1.00769482       0.67315467      -0.00394281
Si       2.84762624       2.64609137       0.03293620      -0.36779188       0.03937709      -0.22070770
Si       2.73135320       2.75941366       5.52633482      -0.37966443       0.30551990      -0.66720077
Si       2.75022852       5.33021952       2.66877058      -0.78155436       0.29438302       0.56602026
Si       2.73006158       5.44076909       8.27391333       0.04199524       0.10896538      -1.28459955
Si       2.70553813       8.15797039       0.17144188      -0.42132010       0.67230839      -0.35386492
Si       2.73634757       7.93217026       5.54469700       0.97382588       0.77908275      -0.41397789
Si       4.02195336       1.41778526       4.11539923       1.04073120       0.30228406       0.06073173
Si       4.09581078       1.23620376       9.48204874       0.19502943       0.07794768      -0.00211298
Si       4.16403940       4.15320651       1.27009836      -0.14318182      -0.10797864      -0.13109408
Si       4.09314638       4.16511675       6.76119786       0.29139455       0.25400390       0.33286376
Si       4.08513077       6.70676034       4.03323579       0.20173448       0.81371785      -0.54378932
Si       4.00443024       6.87607191       9.57220911      -0.81094949       0.95593811      -0.74231870
Si       3.95565952       9.72511010       1.47781465       1.27552543      -1.07539599      -1.97555465
Si       4.06345202       9.51116746       6.88156710      -0.65609863      -0.33388165      -0.82517761
Si       5.55720199       0.03349951       0.10441084      -1.08418561      -0.01290515      -0.48272578
Si       5.41423709      -0.02861605       5.45983254      -0.24048157      -0.04774006      -0.57844743
Si       5.44540050       2.83354081       2.69066762      -0.15149757      -0.56179956       0.47917048
Si       5.38246900       2.68463368       8.07425498      -0.52324187       0.38247020       0.60120128
Si       5.38354836       5.67610472      -0.08364879       0.82691054      -1.19325519       1.39968087
Si       5.52847809       5.51223516       5.39709482       0.02250972      -0.71507209       0.03104196
Si       5.33884638       8.26586338       2.54635475       0.48551496      -0.70401499       1.77562193
Si       5.36436378       8.14548223       8.18635440       1.15426120       0.30190058       0.28996814
Si       6.82838326       1.50102182       1.33996642       0.02423650      -0.36568855       0.74077775
Si       6.72584131       1.34741871       6.78395825       0.68167357       0.30476659      -0.58405523
Si       6.90214199       4.09142237       4.03079676      -0.66569256      -0.26703705       0.64687352
Si       6.55402980       4.15087823       9.52355449       1.32189779      -0.74870875      -0.44819023
Si       6.80263968       6.90558481       1.32787525       0.15097740       0.02722448      -0.42954941
Si       6.83826702       6.82351816       6.81522278      -0.74171958      -0.81246063       1.06852257
Si       6.82693469       9.48625057       4.04846641      -1.10816342      -0.05502385       0.04679325
Si       6.84928221       9.56828801       9.53838135      -1.28685155      -1.27619502       0.37246376
Si       8.09941117       0.03386226       2.72688001       0.71952753       0.03900044      -0.58674177
Si       8.01419802       0.00338875       8.15635137       1.27042609       0.04274565      -0.95868908
Si       8.12598200       2.80782295      -0.04927328      -0.23631455       0.33886917      -0.19695691
Si       8.20845728       2.61487171       5.34830770      -0.27752058      -0.27370317      -0.04235088
Si       8.11603559       5.39586819       2.59881367       0.46316271       0.50857726      -0.17608130
Si       8.14265823       5.27514138       8.14785697      -0.20763749       0.59706047      -0.41422769
Si       8.24591589       8.19063200      -0.07412619      -0.14140179      -1.13302992      -0.41393198
Si       8.06078081       8.05482354       5.41059662       1.69850592       0.58128645      -0.82688646
Si       9.64805528       1.31575958       3.96959080      -0.78025152      -0.89714644       1.08162429
Si       9.36899770       1.31889077       9.50954902       0.83704538       0.91604884      -0.59296712
Si       9.57166120       4.08674190       1.29246689      -0.46127822      -0.27932062       0.16912838
Si       9.51776778       4.00829186       6.65529828      -0.57500698      -0.54117690       1.38362602
Si       9.53649123       6.70917693       3.93826838      -1.14271821       0.90999077       0.27723667
Si       9.57829830       6.69560682       9.39101767      -0.45596405       0.85138437      -0.06078536
Si       9.48831383       9.50533032       1.30139977       0.12990058       1.00035684       0.61198010
Si       9.45651192       9.45182410       6.79379660      -0.00718496       0.35513643       0.00120664
64
Lattice="10.862 0.0 0.0 0.0 10.862 0.0 0.0 0.0 10.862" Properties=species:S:1:pos:R:3:forces:R:3 pbc="T T T"
Si      -0.04912220      -0.01476526      -0.06477304       0.28444213       0.02118433       0.48444727
Si      -0.06703299      -0.02138056       5.50297593       1.18768045      -0.02980735      -0.68511057
Si      -0.01993818       2.69771457       2.64058227      -1.32101983      -0.10097547       0.79665502
Si       0.04834939       2.72701209       8.08370593      -0.08696099      -0.20580901       0.45583115
Si       0.03998235       5.56549229       0.04694135      -1.11264995      -1.21974136      -0.77524399
Si      -0.01679296       5.51220896       5.47590667       0.63056905      -0.03430804      -0.40393422
Si      -0.00285973       8.10870653       2.79386855       0.94819803      -0.06561576       0.39728117
Si      -0.01116485       8.08458108       8.07789048       0.19412939       0.09162169       0.75240417
Si       1.26736579       1.35636869       1.33949074       0.83604056      -0.01324768      -0.66652390
Si       1.41109895       1.37574282       6.74469425      -0.05063478      -0.24372904      -0.11204288
Si       1.22551602       4.05257483       4.06065061       0.69966093       0.15060322       0.09465255
Si       1.28135247       4.04812567       9.54268451       0.40660987       0.34828052       0.22900707
Si       1.35221930       6.91903925       1.27614987       1.09382266       0.21509346       0.65571548
Si       1.50486947       6.73433005       6.81866481      -0.93292316       0.57053336      -0.39699709
Si       1.41872286       9.48098330       4.15424401      -0.75537307      -0.04308431       0.30752053
Si       1.34876722       9.53945918       9.47319434       0.36529350      -0.08669479      -0.82265185
Si       2.61364725       0.01498826       2.72174313       0.77624987       0.05107428       0.20572709
Si       2.83669915       0.07757791       8.10525111      -0.85275963      -0.65411354       0.58782818
Si       2.72610752       2.79588826       0.06383163      -0.31249838      -0.68561559      -0.17201858
Si       2.73212648       2.62135826       5.27235082      -0.45206297       1.19007248       0.79898472
Si       2.63471290       5.43869635       2.70655045      -1.44897094      -0.20437868      -0.58728559
Si       2.69489172       5.26213738       8.09769901       0.43206469       0.47654955       0.98745082
Si       2.82972422       8.24586821      -0.09580341      -0.17006176      -0.25368883       0.49215921
Si       2.82849447       8.16061691       5.50680014      -0.18728775      -0.51057063      -0.77842729
Si       4.15461063       1.35264603       4.04872459      -0.50944294      -0.45773195      -1.02133275
Si       4.10055036       1.31401668       9.65008245      -0.81605358       1.14164288      -0.98231345
Si       4.04379224       4.17963288       1.41284566       0.36667853      -0.18466617      -0.60873515
Si       4.07523198       3.99155060       6.74904308      -0.40814728      -0.52014626      -0.26124781
Si       3.98648293       6.69170012       3.95258580       0.53213094       1.26218779       1.47456759
Si       4.11334316       6.76338929       9.40191745      -0.48342668      -0.12727119      -0.14080083
Si       4.11908643       9.51975214       1.49763509      -0.21864134      -0.30495837      -0.34491427
Si       4.17773874       9.49576004       6.81720423       0.26445640       0.50982733      -0.12835428
Si       5.40140095       0.04556263       0.09226792       0.60406915      -1.47965645      -0.32783953
Si       5.49086756       0.06036764       5.41712815      -0.65120056      -0.08098950       0.81431122
Si       5.41757446       2.74762233       2.64785888      -0.09273647      -0.75103685      -0.25431299
Si       5.38441822       2.63942310       8.14762593       0.18736548       0.03205931       0.50007398
Si       5.43057052       5.50093749      -0.00685131       0.03637942      -0.17842895       0.31115058
Si       5.29995302       5.36172456       5.33706009       1.01884338       0.30960482       0.38146349
Si       5.50240061       8.10811772       2.87912943      -1.17216981       0.31103327      -0.57004549
Si       5.54035124       8.05923164       8.04801520       0.23798358       0.36229170       0.54330419
Si       6.80705964       1.36097872       1.29384624      -0.60091232       1.01225496       0.13463136
Si       6.81129787       1.35867881       6.80951740       0.75889175       0.65162229      -0.29501552
Si       6.70054309       3.97618567       4.05430657       0.72355466       0.19003222       0.95875892
Si       6.73679453       4.00028006       9.54494537      -0.73185812       0.79248674      -0.65078989
Si       6.76317529       6.86830370       1.43603145       0.11900418      -0.79884432      -0.37197512
Si       6.89151801       6.73283110       6.63735436      -1.50315009      -0.24089388       0.00506434
Si       6.73864184       9.56920735       4.13205958       1.17599043      -0.59668853      -0.42530707
Si       6.80249236       9.50963692       9.52888828       0.42226642       0.04901601       0.18594877
Si       8.01708437      -0.03436180       2.56422570       1.29635569      -0.70804606       1.41501753
Si       8.26348372       0.05803174       8.10509125      -1.58270724      -0.69853702       0.66309025
Si       8.09098354       2.79636706       0.03439583       1.24604611      -0.77365776      -0.54807638
Si       8.27927591       2.77697034       5.44508225      -0.92025011      -0.62781914      -0.21850033
Si       7.99951801       5.36664311       2.75144711       0.48068117       0.57284259      -0.01458739
Si       7.99576149       5.46095238       8.18732137       1.15692928      -0.90496745      -0.02260324
Si       8.20181997       8.17127110       0.20461573      -0.20086567       0.08476204      -1.63636642
Si       8.18963604       8.16452812       5.42410524      -0.04668740       0.53994397      -0.59794361
Si       9.44750236       1.19691172       4.06331983      -0.03993475       1.23935325      -0.61995406
Si       9.52049304       1.38372376       9.45700072      -0.11570308       0.86254931       0.54138427
Si       9.43415503       4.15091231       1.37008110       0.74330460      -0.00174398      -0.01524904
Si       9.58592342       4.15986218       6.82728199      -1.04524203       0.04384776       0.46634757
Si       9.44968172       6.75030755       4.05738389      -0.12049062      -0.14958477      -0.06193167
Si       9.41684358       6.77000284       9.52180492       0.26512693       0.59303830       0.12692423
Si       9.63932047       9.45780787       1.45653574      -0.90162641       1.07759363      -0.51398565
Si       9.48688468       9.51520767       6.79179102       0.35363049      -0.81595441       0.26471519
64
Lattice="10.862 0.0 0.0 0.0 10.862 0.0 0.0 0.0 10.862" Properties=species:S:1:pos:R:3:forces:R:3 pbc="T T T"
Si      -0.11546043      -0.10762798      -0.01417348       0.62436963       0.05340649      -0.59872863
Si       0.12866235       0.05345452       5.39968943      -0.38347147      -0.40659487      -0.23493609
Si      -0.01625638       2.62969011       2.63483990       0.37415385       0.68800910       0.21350689
Si       0.04458080       2.75377391       8.18617670      -0.29134968      -0.34732549      -0.69367873
Si       0.01903032       5.36852492       0.00980026       1.06076412      -0.52679251      -0.00895168
Si      -0.07489990       5.31842094       5.45549281       0.13044917       0.61792578      -0.01000246
Si       0.01613964       8.15540838       2.71282046      -0.53640657      -0.24023666      -0.38208864
Si      -0.11484797       8.07639709       8.02900551       0.65402212      -0.28191645       0.38603573
Si       1.26081490       1.18160400       1.32013857       0.31518625       0.80340640      -0.10318116
Si       1.44695372       1.39111817       6.74541658      -0.37851633      -0.03783141       1.24609121
Si       1.32321849       4.04008583       4.04836613       0.19101781      -0.73264662       0.60567043
Si       1.44266760       3.94431491       9.60512552      -0.80003105       1.35692839      -0.90929070
Si       1.36024089       6.67834633       1.33622445       0.23300084       0.85953649       0.72659722
Si       1.37749582       6.72896991       6.77639599      -0.56804363      -0.16539458      -0.28758028
Si       1.42378206       9.47977682       4.04428887       0.02841836      -0.16137053       0.23418379
Si       1.25842984       9.43504039       9.39452394      -0.01409616      -0.09358772       0.57948582
Si       2.71702276       0.04576007       2.70643033      -0.27719704       0.50803209       1.07267970
Si       2.72189304      -0.03358354       8.18282145      -1.31714180      -0.77023654      -1.27722858
Si       2.67210339       2.62608519       0.05027348       0.32972899      -1.52252186       0.00139473
Si       2.82440022       2.80502340       5.60357935      -0.63034889       0.09569790      -1.89335687
Si       2.74764371       5.32593700       2.73625512      -0.27599318       0.59486170      -0.06886936
Si       2.69471328       5.37265652       8.16165034       0.07838514       0.09604114       0.39505445
Si       2.64531052       8.14336240       0.00840196       0.14667004      -0.10507907      -0.48423629
Si       2.76889456       8.06975062       5.42509629      -0.15335318       0.09997479      -0.22521364
Si       4.08352435       1.39982647       4.15630923      -0.18817176      -0.06974998      -0.09785393
Si       3.97825973       1.28260038       9.41052711       1.49707257       1.22590744       1.37556396
Si       3.99360560       3.90489735       1.39096481       0.85116359       0.88463091       0.05391938
Si       4.17632689       4.14776159       6.83952852       0.11257140      -0.02243824       0.36634160
Si       4.15522934       6.70366111       4.06764009      -0.01925541       0.31054521       0.12946620
Si       4.05289843       6.73024692       9.50617335       0.19181640       0.64596602       0.31028795
Si       3.94713760       9.62011092       1.35159768       1.10561107      -1.26340024      -0.44785949
Si       4.06099441       9.50227733       6.78248893      -0.09112749      -1.00485105       0.78753286
Si       5.41149119       0.01122184      -0.00039926       0.03006346       0.38611241      -0.28012000
Si       5.37382896      -0.02020028       5.51790847       0.57512320       0.21762716      -0.90766366
Si       5.44173394       2.73242843       2.78069961       0.11468843       0.62348519       0.68214662
Si       5.45574343       2.65258326       8.08898278      -0.64118562       0.96146219       1.42042546
Si       5.38036245       5.38686683       0.06862545      -0.14375274       0.33149716       0.34754315
Si       5.55698910       5.49922761       5.56526517      -0.13685687       0.30285189      -0.62717941
Si       5.38897296       8.25570609       2.74662472      -0.65638541      -1.09080731      -1.25851898
Si       5.49760320       8.14796386       8.18906664      -0.54362619       0.46852967      -0.03035593
Si       6.71364764       1.53163012       1.30664005       0.19746812      -1.58228007       0.45052186
Si       6.73799556       1.32996185       6.82687140       1.50107164      -0.33105894      -0.77165717
Si       6.86983646       4.22084197       4.11778270      -0.72595142      -0.79081027      -0.50347853
Si       6.74780396       4.16306079       9.51309578      -0.29172829      -1.42065321       0.21147182
Si       6.83460045       6.89798445       1.31787798      -1.27649106      -0.56368608       0.52990676
Si       6.91528241       6.94371023       6.80168468       0.30267205      -0.10546065      -0.06678795
Si       6.69997248       9.56789134       3.99168919       0.71998301       0.79775518       0.80656964
Si       6.88394618       9.59845376       9.48243467      -1.00791317       0.05750990      -0.32039742
Si       8.12263247       0.02400840       2.62382952      -1.37460011       1.54641267       1.06268615
Si       8.29746299       0.08531353       8.20238466      -0.80763873      -0.34267678      -1.10615400
Si       8.13092923       2.74237485       0.02433543       0.40969618       1.12088671      -0.61905001
Si       8.12215467       2.69953980       5.35082182       0.00183630      -0.55677741       0.53252217
Si       8.16786362       5.51820163       2.69675056      -0.21523446      -0.07768112      -0.47880753
Si       8.11523187       5.43141784       8.21728015       0.27232522       0.80467481      -0.51256233
Si       8.07967016       8.16815425      -0.10272605       1.56326252      -0.34651080       0.42088822
Si       8.20741322       8.27648720       5.24103046      -0.82683078      -0.08669580       0.97711346
Si       9.55198067       1.32704148       4.02229352      -0.57475950      -0.13259556       0.28249562
Si       9.55568592       1.41466666       9.56120275       0.16849260       0.35223682       0.15957468
Si       9.54299128       4.14261450       1.37331892      -0.76223630      -0.93271737       0.24656525
Si       9.34927749       4.04549693       6.83291381       0.99855185      -0.41289365       0.05464506
Si       9.46254729       6.76965104       4.08842977       1.37592619       0.21822488      -0.13160704
Si       9.60747808       6.66067366       9.56842824      -1.31512588       1.42168959      -0.88576952
Si       9.35672730       9.58994019       1.36800709       1.13354530      -2.38161611      -0.63612212
Si       9.53563338       9.54741398       6.68897972      -0.06428729       0.45506885       0.19040029
64
Lattice="10.862 0.0 0.0 0.0 10.862 0.0 0.0 0.0 10.862" Properties=species:S:1:pos:R:3:forces:R:3 pbc="T T T"
Si      -0.04995131      -0.13020760      -0.05077985       0.78687253       0.53420496       0.75594665
Si       0.04139478      -0.01263850       5.43106355      -0.51275128       0.39189326      -0.26481095
Si      -0.05205765       2.71432692       2.73743757       0.67942790       0.07219846      -0.28645255
Si      -0.01823391       2.61765704       8.15244324       1.39856520       0.84800541      -0.77313089
Si       0.06796927       5.34085900      -0.03629970      -0.72268698       0.71343851      -0.09134138
Si      -0.00113249       5.55610972       5.45892934       0.31606504      -1.44363371       0.28934810
Si      -0.00074688       8.16044303       2.69181249       0.01560943      -0.23183451      -0.19574442
Si      -0.12143453       8.20776560       8.25274831       0.65842117       0.98851793      -0.51209436
Si       1.29182526       1.20274341       1.44629378      -0.75474104       0.90392572      -0.88830071
Si       1.40574394       1.31806515       6.79252954       0.08651735      -0.08150822       0.26552972
Si       1.32951194       4.07608956       4.06533727       0.30915331       0.68966563       0.29200892
Si       1.34483834       3.93732628       9.55756831       0.45846718      -0.09308226      -0.42875711
Si       1.33089087       6.74264909       1.32438130       0.42421858      -0.15967849       0.97196318
Si       1.23502317       6.96159753       6.90396908      -0.17400836      -0.85976133      -0.47846516
Si       1.40871961       9.53963142       3.98704439      -0.69675948      -0.61527412       1.04000818
Si       1.36831751       9.40468716       9.59477597       0.38710162       0.56351617      -0.86650085
Si       2.71371101       0.00938512       2.71189360       1.24609947      -0.63798087      -0.65983658
Si       2.77053930       0.04137922       8.26525948      -0.83312256       0.28205556       0.71808954
Si       2.70828049       2.62773035       0.13350659      -0.23969037       0.42425585       0.41549982
Si       2.69567655       2.70790387       5.43071128       0.73526560       0.13400704      -0.46034969
Si       2.80804098       5.54659448       2.83583389      -1.59432644      -1.02779864      -0.84972004
Si       2.50536918       5.50153123       8.19567893       0.68113110      -0.41669446      -0.11339242
Si       2.70697972       8.07579589       0.03747109       0.82017259      -0.07740766      -0.36106225
Si       2.60395495       8.24756570       5.58815912       1.13755855       0.39061151      -0.75177338
Si       4.14648183       1.33785712       3.91544830       0.02738075       0.32660393       1.67125081
Si       4.14527853       1.42440326       9.62752326      -0.46607819       0.33373389      -1.20552744
Si       4.03766405       4.06272678       1.51711262       0.37024577       0.03550963      -0.96347244
Si       3.96191741       4.24761151       6.80073428      -0.03530790      -0.64116006      -0.49317186
Si       4.03424186       6.90820884       4.11258099       0.62806367       0.62367727       1.00712322
Si       4.05792471       6.75553312       9.41284496      -0.05932767      -0.04512121       0.75067924
Si       4.12081277       9.56386901       1.20030237      -0.32269885      -0.03055555       0.96723320
Si       4.07346585       9.63944049       6.92448253       0.58763623      -1.15889638      -0.93338055
Si       5.54001855       0.09503991      -0.06297807       0.46658455      -1.01578726       0.40804042
Si       5.50239363      -0.04523439       5.42391104      -1.53377506       1.08574043       0.37686162
Si       5.55576877       2.71357088       2.68324321       0.55692160       0.47563869       0.27111498
Si       5.33200317       2.74214296       8.01167649      -0.36030138       0.66678738       1.21503841
Si       5.37925573       5.27847742      -0.10295005      -0.83328721      -0.65239084      -0.33117762
Si       5.44615130       5.44888492       5.38574535      -0.59477046       0.90826295       0.47277814
Si       5.42383716       8.14629145       2.63376509      -0.30752039       0.41887007       0.19263101
Si       5.48733684       8.13698878       8.16016103      -0.55130477       0.03124840      -0.71828368
Si       6.96161621       1.31082346       1.34018280      -0.68289548      -0.17123525       0.74937424
Si       6.71503143       1.43225736       6.78395147       0.10519040      -1.36305578       0.18568402
Si       6.91669489       4.25183583       4.12055892      -0.66507606      -1.59633739      -0.67721902
Si       6.85571944       3.95947150       9.41142073      -0.50880493       0.40601015      -0.08456026
Si       6.58199184       6.70327671       1.16615192       1.09195127       0.37703636       1.14001508
Si       6.85359755       6.81965368       6.73444054      -0.76948081       0.03945580      -0.15127389
Si       6.73379611       9.46191349       4.16192380       1.31423031      -0.70275512      -1.49305340
Si       6.83976274       9.46330550       9.46375831      -0.49565033       0.61103979       0.23985469
Si       8.24417913      -0.07063558       2.78527567      -0.48749858       0.39425957       0.22927283
Si       8.11227134       0.03355846       8.16983169      -0.00263425       0.74105234      -0.16376067
Si       8.19325122       2.63951084      -0.03866698       0.84063343       0.20833565      -0.60901209
Si       8.05049000       2.71260313       5.50589620       0.81580171       1.20603138      -0.41901562
Si       8.11606025       5.48315724       2.57976118       0.64814943       0.18682331      -0.10934158
Si       8.11964325       5.45696800       8.06640220       0.91790124      -0.73004559       0.63952838
Si       8.04368055       8.01971242      -0.09952686       0.71780854       0.48011662       1.00320279
Si       8.23372719       8.15599513       5.42407873      -0.34707006       0.40977696       0.29479221
Si       9.45582298       1.51964595       4.13951373       0.23080257      -1.76102537       0.12504447
Si       9.66549358       1.30197155       9.45653615      -2.06728303      -0.48166129       0.82001863
Si       9.56672900       4.01308080       1.28645660      -0.88359052       0.50732488       0.31955934
Si       9.56460229       3.98651399       6.81356360      -0.60413469       1.09919704      -0.38610783
Si       9.51152317       6.78328545       4.08933683      -0.29913685       0.23842624      -1.17914085
Si       9.53263501       6.80556884       9.46976813      -0.75834314      -1.68755163       0.66085169
Si       9.46278246       9.45811443       1.28405297      -0.60798868      -0.83207120       0.41007275
Si       9.46711631       9.58360885       6.86996029       0.31209769      -0.23295058      -0.99918471
64
Lattice="10.862 0.0 0.0 0.0 10.862 0.0 0.0 0.0 10.862" Properties=species:S:1:pos:R:3:forces:R:3 pbc="T T T"
Si      -0.05319120       0.11038129      -0.05896087      -0.98517046      -0.39371333       0.19283647
Si       0.02550592      -0.09278884       5.40772652      -0.79255945       1.17122918       0.31352140
Si      -0.03989144       2.67499582       2.93110452       1.21216754       1.02053434      -1.71595800
Si      -0.08569041       2.77911028       8.06360905       1.19901047      -0.53433562       1.17910965
Si      -0.03962220       5.42325777       0.00288428      -0.26077543       0.07831909      -0.21572701
Si       0.03782008       5.35971507       5.42576062       0.60825830       0.90330811      -0.35182759
Si       0.03204867       8.14458470       2.71263615       0.69099170       0.49770723      -0.78015144
Si       0.01977440       8.18630206       8.14089432      -0.23142216       0.23437294       0.14551209
Si       1.19507992       1.22601218       1.47528412       1.06329607       1.25291069       0.22577452
Si       1.32171674       1.38937516       6.80696264       0.01805283      -0.02089539      -0.73289322
Si       1.49073985       4.10236364       4.05777982      -0.31316990      -0.40595281       0.37636459
Si       1.29000315       4.06968800       9.56006343       0.51238043      -0.20959834      -0.64667557
Si       1.38083012       6.65253857       1.38098130      -0.26742217       1.18778683      -0.23048186
Si       1.34082702       6.87508119       6.76303955       0.17648680      -0.41118830      -0.32549129
Si       1.39665648       9.55369447       4.04294000      -0.52987568       1.06939307      -1.92581147
Si       1.28906121       9.59130949       9.57810128       0.85819923      -0.21442050      -0.98529973
Si       2.88215415       0.07634196       2.66422167      -2.25466295      -0.22865958       0.58179191
Si       2.72642878       0.11698103       8.13474560      -0.21527044      -0.60809452       0.85523457
Si       2.61232547       2.68078015       0.13968521      -0.06614430       0.12437083      -0.32830032
Si       2.80904520       2.74265552       5.46250763      -0.86613229      -0.59762950      -0.10198719
Si       2.82365350       5.43883346       2.69660816       0.38015255      -0.34998969      -0.04698543
Si       2.65588009       5.47199113       8.14986461       0.79047063       0.00554610       0.18903027
Si       2.65714736       8.16651174       0.02823118      -0.36281015      -0.69329585      -0.25200337
Si       2.60774147       8.31201536       5.32557091       1.81232963      -2.52949816       1.44577057
Si       4.08593432       1.36906656       4.05681894       0.48065457       0.81639091       0.16177804
Si       4.05562803       1.45975214       9.56885587      -0.02806539      -0.58289296       0.10519772
Si       4.17386230       4.07518324       1.27377651      -0.88775859       0.25644981       0.03812767
Si       4.13292193       4.07161691       6.78229557      -0.82236041       0.55453431       0.86452762
Si       4.14983549       6.78317184       4.08421312      -0.63420222       1.03869147      -0.05625147
Si       4.15451490       6.85933594       9.56011709      -0.94393128      -0.23477741      -0.62920419
Si       3.95780724       9.50129465       1.35400845       0.78134528      -0.49286135      -0.42737649
Si       3.97650064       9.47778897       6.82736417       0.64838460       0.33380627      -0.05422937
Si       5.36537377      -0.10820060       0.02688834      -0.61090641       0.75604410      -0.72474738
Si       5.34433273      -0.05068089       5.37798009       0.59819945      -0.61253364       0.11933825
Si       5.42815874       2.71637722       2.63041439       0.39163103      -0.57853549       0.55843395
Si       5.42902411       2.79174766       8.19594013       0.75418646      -0.36839027       0.12800653
Si       5.51892406       5.49260644      -0.02360173       0.07665419       0.24363090       0.72575676
Si       5.42465802       5.34171981       5.39667640       0.89236929       0.72040229       0.04645919
Si       5.41520131       8.24702377       2.63735836      -0.06940671      -0.70667179       1.05061173
Si       5.51036589       8.19741934       8.20262342      -0.60771098      -0.15396695      -0.60582481
Si       6.69060583       1.12558821       1.41417040       0.05370543       1.66106035      -0.55903060
Si       6.68828661       1.40471707       6.62849085      -0.11552293      -0.45866605       1.59645816
Si       6.82734311       4.04772429       3.97638390       0.31339619       0.14159493       0.39942044
Si       6.88487478       4.05484728       9.66326130      -0.69366430       0.54906615      -1.73799815
Si       6.82569959       6.87389689       1.45862213      -0.11965835      -0.55523556      -1.05213584
Si       6.79305507       6.72773640       6.85902997      -0.03933084      -0.19563252      -0.57547813
Si       6.85527408       9.36445530       4.10740045      -0.64488421       0.95244529       0.04827564
Si       6.79778358       9.56459404       9.55288123       0.47751421      -0.27098264      -0.28811004
Si       8.09333605      -0.03012728       2.73058393       0.72635395      -0.33538007       0.95402208
Si       8.08497849       0.01363071       8.07894174      -0.03577900       0.35097978      -0.29603691
Si       8.05628370       2.62835441       0.04845909       0.64676730      -0.82768673       1.14966439
Si       8.16526552       2.72319238       5.48542831      -0.62972666       0.19636851      -1.05983472
Si       8.22317095       5.43167206       2.63165515      -0.00224976      -0.23002932       0.43275501
Si       8.21765857       5.35567670       8.15681271      -0.65362958      -0.27059910      -0.13853703
Si       8.15540986       8.16504200       0.02334116       0.31942063      -0.19617722      -0.44829491
Si       8.21340414       8.00753579       5.41867054      -0.25637643      -0.59265094      -0.06943512
Si       9.44390332       1.40878359       4.07833137      -0.46210986      -1.77021080       1.10809209
Si       9.41776826       1.46577227       9.42559014      -0.00521632      -0.65698028      -0.10514523
Si       9.56386271       3.96752833       1.34147743      -0.40674323      -0.05058442       0.25056839
Si       9.54260111       4.04784076       6.72523937      -0.73955611       0.83543962      -0.01961806
Si       9.64722627       6.74799992       3.98018853      -0.93761781      -0.51487923       0.89035553
Si       9.50722530       6.77000326       9.38692051       0.21283625       0.60927700       1.36405011
Si       9.49745679       9.56656670       1.37671264       0.36154619      -0.34206390      -0.43957182
Si       9.44443795       9.42601512       6.74343677       0.43506155       0.63400009       0.42960843
64
Lattice="10.862 0.0 0.0 0.0 10.862 0.0 0.0 0.0 10.862" Properties=species:S:1:pos:R:3:forces:R:3 pbc="T T T"
Si       0.03250778       0.03611634      -0.03017929      -0.14746402      -0.98405926       0.65788518
Si       0.04212240       0.04922650       5.48302204       0.02313966       0.10503032      -0.23161233
Si      -0.01446882       2.62698934       2.65202006      -0.51642858       0.28866617       0.78960054
Si      -0.04884845       2.67957109       8.22085517       0.02085720       0.20036670      -0.77705451
Si      -0.08083282       5.38097148       0.06227543       0.84270850       0.32867658      -0.38766248
Si       0.11445770       5.37265705       5.53770197      -0.36253769      -0.54070848      -0.55283108
Si      -0.03645438       8.11999235       2.67085803       0.44553404       1.06753801       0.46985654
Si      -0.00905099       8.19533697       8.14128655       0.29067192       0.12369862       0.09976594
Si       1.36499375       1.27899494       1.39506890       0.58173727       0.48290362      -0.31775022
Si       1.41458855       1.51463734       6.77477342      -0.53968346      -0.49157097      -0.02296578
Si       1.31505582       3.93437305       4.08505875      -0.30515066       1.39703755      -1.10734450
Si       1.31233046       4.00836467       9.56578214      -0.00901643       0.03973760       0.63984926
Si       1.28485991       6.74826763       1.43910507       0.45965412      -0.55955408      -0.56945750
Si       1.39242561       6.77532477       6.83122832      -0.01760705       1.10971665      -0.34566021
Si       1.36614005       9.57013076       4.00622844      -0.51387661      -0.58826866       0.27414095
Si       1.39068207       9.54084440       9.54929362      -0.37233569      -0.58881934      -0.48355116
Si       2.80207646       0.01844061       2.74965696       0.21708742       0.13279327       0.12476008
Si       2.60103463      -0.03390412       8.05699862       1.21300624       0.40971376      -0.04486143
Si       2.76489202       2.68697301       0.08835952      -0.23680363      -0.09974379      -0.72124483
Si       2.74221054       2.81927361       5.34160138       1.48467030      -1.15848091       1.18526909
Si       2.73102040       5.40981344       2.73950337      -0.65955835      -0.52014103       0.14780043
Si       2.58818790       5.47159001       8.27926643       1.12821533      -0.59887050      -0.41786630
Si       2.61273008       8.08889901       0.06780734       0.22841942       0.13912735      -0.28009209
Si       2.71632356       8.08613945       5.25252975      -0.51568594      -0.03127959       0.90326286
Si       4.24105564       1.28704261       4.21417381      -0.81976371       0.75183942      -0.87536131
Si       4.05366690       1.40922307       9.37153691       0.10568096      -0.44037512       0.46964560
Si       4.11898356       4.04603463       1.44709840      -0.82120825       0.49709491      -0.74497559
Si       4.06128419       4.26499165       6.71577107      -0.25326660      -0.33597048       0.47334547
Si       4.12387114       6.74674338       4.00930380      -0.39979070       0.83852492      -0.79111189
Si       4.02759624       6.73028105       9.64808439      -0.16483534      -0.46229352       0.39261758
Si       4.01165573       9.46611135       1.30686998      -0.39605227       1.30659299      -0.75957637
Si       3.99714442       9.38592317       6.71309248       0.06235867       0.63635122       0.23408780
Si       5.44042724       0.02495970      -0.00868983      -0.85787678       0.52670039      -0.23308380
Si       5.56919786      -0.12738835       5.46072584      -0.42845415      -0.03025479       0.70573570
Si       5.43801631       2.75094032       2.71113238       0.44230996      -1.25024479       0.65260376
Si       5.46625109       2.84591668       8.07557724      -0.79075293      -0.25165624      -0.19895562
Si       5.50050669       5.40528691       0.14162417      -0.25365975       0.22965024      -0.30647919
Si       5.47938172       5.51143409       5.29577384       0.44811637      -0.79371921       0.90085574
Si       5.31745593       8.25856206       2.61739996       0.90436999      -0.81290821       1.64772462
Si       5.21950925       8.04533370       8.20749185       1.08222724       1.16985542      -0.26788027
Si       6.79896106       1.44618578       1.28247306      -0.08773961      -0.79113437       0.71212248
Si       6.79739993       1.38952884       6.78579455      -0.16119040       0.18046019      -0.14649233
Si       6.82837902       4.05340046       4.00752381       0.07743226       0.75187822       0.10108768
Si       6.77325537       4.10897655       9.51912194       0.85010117       0.08738970       0.20647447
Si       6.76265024       6.86195902       1.51549503       0.57377249       0.07826640      -1.35689122
Si       6.66560242       6.88333228       6.75878825       0.98009977      -0.47251847       0.53739380
Si       6.84353228       9.47619085       3.99494955       0.25832022      -0.53345679      -0.00322238
Si       6.72744694       9.59340853       9.46569404      -0.43363613      -1.75476669       0.23213609
Si       8.17386603      -0.06146642       2.59106991      -0.43316073       0.55285367       0.18141249
Si       8.05752705       0.04614764       8.19151398       0.52012922      -0.17671853      -0.85019132
Si       8.21223804       2.73200276       0.02467956      -0.01213990       0.31467337      -0.78061089
Si       8.11978211       2.66042519       5.31939695       0.34724435       0.27603676       0.79181861
Si       8.21402534       5.53281497       2.74996902      -0.56832324      -0.47854443       0.52302349
Si       8.15262454       5.53032656       8.19006737      -0.40634103      -0.42112400      -0.81306352
Si       8.13935193       8.16388432      -0.03431656      -1.03194807      -0.40099233      -0.33491249
Si       8.22267987       8.08557038       5.44098880      -0.02504523       0.34634954      -0.48106349
Si       9.45849903       1.26531232       4.05279905       0.57636572      -0.03886282      -0.45117424
Si       9.50259341       1.24073204       9.49493288      -0.27343427       1.20260875       0.45406488
Si       9.47624811       4.13108362       1.45414534      -0.03610715      -0.88820616      -0.47204838
Si       9.48103463       4.03929037       6.75777138      -0.41929975       0.13604456       0.54781829
Si       9.71949452       6.69335395       4.05626315      -1.00416136       0.40766596       1.26631838
Si       9.56915729       6.82565334       9.54228197      -0.38220318      -0.10053104      -0.18458399
Si       9.49814446       9.41837274       1.26616726       0.55851153       0.84840527       0.13394613
Si       9.47651810       9.58909393       6.82136129      -0.06620271      -0.36847353      -0.14479125
64
Lattice="10.862 0.0 0.0 0.0 10.862 0.0 0.0 0.0 10.862" Properties=species:S:1:pos:R:3:forces:R:3 pbc="T T T"
Si      -0.08790094       0.09437034       0.02854567       0.88827637      -1.21640849       0.47692515
Si      -0.07565784       0.01885014       5.53037038       0.64538635      -0.60912244      -0.69471718
Si      -0.09031256       2.66528669       2.77197056       0.99987357       0.92018572      -0.57362772
Si      -0.08563156       2.68486895       8.14546149       0.36835727       0.61613300       0.22804851
Si      -0.03566437       5.50923213      -0.03285069       0.32604672      -0.39178419       0.74052188
Si       0.02938521       5.53844329       5.38555098      -0.55762441      -0.75146414       0.01409784
Si      -0.03360635       8.17835530       2.78173357       0.13614112      -0.54663647      -0.12752339
Si       0.06385084       8.19135497       8.15059377      -0.16094889      -0.16417268      -0.61191405
Si       1.34857724       1.43722845       1.38738969       0.23464548      -0.44937659       0.14020492
Si       1.36053437       1.32540187       6.90653479      -0.24422844      -0.32254207      -0.14693179
Si       1.31898613       4.09898706       4.08628961       0.36533756      -0.16974433      -0.37069214
Si       1.32372057       3.99151842       9.62788194      -0.21942299       0.33510954      -1.00739924
Si       1.35585099       6.72082883       1.51650898      -0.57842408       0.83644561      -1.20012863
Si       1.40736782       6.74596772       6.75427410       0.57285008       1.02659750       0.43172406
Si       1.41322026       9.43278187       4.09138760      -0.70854612       1.97855456      -0.03594750
Si       1.38258402       9.44517525       9.60823290      -0.42632158       0.88146742      -0.33507630
Si       2.77009992       0.21791364       2.88313847      -1.17378683      -2.18633912      -1.80482014
Si       2.77700595      -0.12509733       8.16505184      -0.43626280       0.63620070       0.40327875
Si       2.80712465       2.62767108      -0.04483586      -0.57814443       1.01183629       0.91089288
Si       2.61741399       2.72765372       5.51021169       0.05794283      -0.35946438      -0.38379262
Si       2.80492523       5.46221622       2.74037170       0.05078870      -0.50747621       0.39144253
Si       2.68049853       5.37723300       8.20724626       0.26139165      -0.66589019      -0.32943187
Si       2.70206858       8.06176719       0.02142464       0.62181950       0.29140560       1.28484724
Si       2.83062991       8.19344178       5.33395250      -0.80788921      -0.30264863       1.87160917
Si       4.08870975       1.43112793       4.15401504       0.22820156       1.35313588       0.30611726
Si       4.12375753       1.31275221       9.51721664       0.66121162      -0.70266620      -0.55258444
Si       4.13692261       4.19794209       1.21862079      -0.75970893      -1.42089609       1.13627673
Si       4.07681120       3.94215825       6.79522200      -0.57394487       1.13970598       0.42650490
Si       4.15481648       6.93959170       4.06242351      -0.00148926      -2.22899020      -0.16927882
Si       4.08905811       6.64790938       9.59307139      -0.59670413       1.15592119      -0.63620048
Si       4.17276558       9.65900026       1.36326106      -1.27008319      -0.35391329      -0.05304015
Si       4.14906395       9.55547028       6.73012780      -0.28704437      -1.29093402       1.15876633
Si       5.61552483       0.07406698       0.04218421      -0.02461368      -0.01984887      -0.20187875
Si       5.37362190      -0.03750020       5.34507443       0.84753756       0.38778103      -0.14448500
Si       5.41329611       2.79655418       2.71350966      -0.23703947      -0.05994270      -0.12000412
Si       5.47258105       2.62589347       8.07591940       0.03364418      -0.11090687       0.02610294
Si       5.53287307       5.38202539      -0.06895428       0.80107725      -0.04040961      -0.45330139
Si       5.36219675       5.31509670       5.38370532      -0.18363687       1.04062669       0.55759386
Si       5.40051362       8.13624052       2.63196012       0.78587884       0.33242838      -0.71369997
Si       5.42541967       8.13989894       8.31460304      -0.19140203      -0.18128833      -1.27612257
Si       6.91569289       1.51064004       1.44988563      -1.01808205      -0.23744024      -0.70238423
Si       6.78630996       1.32996481       6.59700639      -0.20290266      -0.28327760       0.96386067
Si       6.77388610       4.01303826       4.15703600      -0.06842456       0.95662321      -1.54671274
Si       6.84530529       4.09952365       9.28334460      -0.21014747      -0.01425555       0.60266691
Si       6.80927668       6.70577147       1.34360303      -0.29953185       0.43305554       0.11545455
Si       6.69365024       6.72573452       6.77354039      -0.85656692       0.44718478       0.17384509
Si       6.70947280       9.44144645       4.03604191       0.42322718       0.22628236      -0.05370527
Si       6.92924311       9.50337897       9.47454035      -1.68337016       0.08041359       0.78617049
Si       8.08110730       0.02511480       2.74805583       0.16955459      -1.04541428      -0.24508578
Si       8.03594800      -0.02099484       8.07939869       1.42887329       0.75397177      -0.43655391
Si       8.09855025       2.83450963      -0.05428676       0.61045401      -0.15155216       0.17592833
Si       8.13828050       2.70884030       5.34652940       0.89537049      -0.33123355       0.53326437
Si       8.15768353       5.39692448       2.70982558      -0.21669947      -0.44557637       0.43242206
Si       8.18350012       5.53575814       8.01524622       0.43108584      -0.55969242       0.36741351
Si       8.08377747       8.10124487      -0.01924422       0.93182915       0.17475885       0.65490686
Si       8.02037035       8.07704412       5.44655744       0.12900515       0.34141027      -0.21778017
Si       9.46050472       1.30607717       4.01569658       0.29104840      -0.23952418       1.20916237
Si       9.44415404       1.36998960       9.53794271      -0.79730905      -0.01730536      -0.80838195
Si       9.53703771       4.06536431       1.36927945      -0.21794862       0.38753213      -0.54562823
Si       9.49181846       4.09965271       6.68223769       0.46313760      -0.05651288       0.33178155
Si       9.41324390       6.79707549       4.08801320       0.36831060       0.27240976      -0.17215102
Si       9.48961259       6.89145250       9.44569580       0.25692321      -0.63284590       0.04964219
Si       9.45631946       9.45976218       1.41403398      -0.09282706       0.62230061      -0.60055145
Si       9.40825207       9.41900786       6.76762350       0.39584869       0.42801868       0.37005909
64
Lattice="10.862 0.0 0.0 0.0 10.862 0.0 0.0 0.0 10.862" Properties=species:S:1:pos:R:3:forces:R:3 pbc="T T T"
Si       0.07396315       0.10421838       0.01309782       0.39160166       0.38901677      -0.12519734
Si      -0.01954378      -0.09004882       5.54654473      -0.05355235      -0.11544961      -1.39151288
Si       0.03408833       2.68203822       2.70703708       0.02608968      -0.21286059      -0.51287940
Si      -0.04154761       2.64802969       8.14190822       0.28204845       0.00571389      -0.19013761
Si      -0.04219723       5.42266387       0.12164530       0.50181959      -0.06114194      -1.07379110
Si      -0.07664206       5.33766044       5.36590305       0.52050282      -0.14163818       0.88729387
Si      -0.10438523       8.15339290       2.62963100       0.88043355      -0.48768589       0.11751558
Si      -0.08297001       8.15618490       8.02806130       0.76690125      -0.00513961       0.78650570
Si       1.56400375       1.29333813       1.52057148      -1.43712006       1.37542530      -1.87798289
Si       1.32970313       1.28042821       6.79969704       0.53871044       0.52594712       0.26238741
Si       1.32385858       4.13757096       3.95623976       0.57524935      -0.53562660       0.71339389
Si       1.29757758       4.01727983       9.51284273      -0.05488338       0.94472560      -0.17212091
Si       1.42566836       6.82402008       1.28419527      -0.18118384       0.60576383       0.45683578
Si       1.28093352       6.72391658       6.74617489      -0.52452707       0.59961953      -0.76654237
Si       1.36268331       9.38291268       4.03150030      -0.74814679       0.42319520       0.59160651
Si       1.37082152       9.55039505       9.45914188      -0.67474974      -0.55142507       0.24809810
Si       2.73988650       0.00064216       2.87133417       0.98586465      -0.33888753       0.83110065
Si       2.74994155       0.04046846       8.22117754       0.09486942      -0.25694269      -0.73323545
Si       2.75386413       2.75032468      -0.04375909       0.32457555      -0.45143155       0.85065209
Si       2.68378080       2.70462853       5.42203669      -0.79824847       0.67102512       0.12357011
Si       2.75782105       5.55620322       2.76419129      -0.43771246      -0.32333702      -0.43607524
Si       2.63475491       5.54826747       8.10996492       0.51979384      -0.86006125       1.50448005
Si       2.83153269       8.30992696       0.02275838      -1.21399266      -1.04920581      -0.84538971
Si       2.70817815       8.03326507       5.38331558      -0.04984537       0.34221986       0.69727460
Si       4.15326361       1.40036152       4.24003480      -0.36271807       0.17238223      -1.67534435
Si       4.16942791       1.31882981       9.53517305       0.06564657       0.73071801      -0.10720780
Si       4.05300050       4.18706565       1.38933907       0.22370997      -1.04871463       0.06698614
Si       3.96637282       4.13516199       6.79990331       0.46770695      -0.25321925      -0.08108820
Si       4.16113464       6.77442845       4.11012825       0.46556234       0.85595799      -0.79271677
Si       4.12924827       6.85405417       9.53989823      -0.42362050      -0.37749596      -0.16087054
Si       4.03661464       9.62276299       1.38937024       0.86374003       0.54253560       0.27791962
Si       4.02814076       9.41707917       6.84378808      -0.81181349       0.04806149       0.01145182
Si       5.54976599       0.01382819       0.04123412      -0.93081347       0.37002583       0.64317147
Si       5.27751167      -0.08098554       5.49378227       1.72672190       0.12590025       0.36453266
Si       5.55136702       2.70834055       2.69051781      -3.14610023      -0.78682135      -0.71445010
Si       5.43666204       2.70307476       8.05106982      -0.76297327       0.57860440       0.64415813
Si       5.46055651       5.42882132       0.04349842      -0.02182653       0.64847980      -0.31333640
Si       5.44507955       5.37626397       5.39553243       0.04296563      -0.56622530       0.33605446
Si       5.46204101       8.25138345       2.59891152      -0.11599865      -1.11783869       0.58411222
Si       5.46738575       8.15379524       8.14059311       0.05639726      -0.87129937      -0.49373684
Si       6.85355627       1.42160608       1.40651797       0.79925061      -0.59476502      -0.99559595
Si       6.77062240       1.39990997       6.74346185       0.11127435      -0.80467315      -0.64421822
Si       6.72708053       3.93157227       3.99366868       0.99921338       2.02416500       1.71061700
Si       6.72193677       4.07365503       9.49194737      -0.29191029       0.43598220      -0.76499730
Si       6.89085702       6.80790013       1.32389404      -0.17837411       0.44832403      -0.14064941
Si       6.83380859       6.71455068       6.73432703       0.14362220      -0.04767786       0.87010019
Si       6.73055056       9.52443377       4.07452489       0.46578433      -0.27990802       0.42826683
Si       6.70394406       9.47208243       9.54510264       0.71161829      -0.26075610       0.01756111
Si       8.15921756       0.00840111       2.76266572      -0.21914007       0.31637750       0.07106557
Si       7.96450326       0.00853145       8.23071469       1.17728725       0.23922679      -0.66739359
Si       8.09497036       2.85192474      -0.07448434       0.00126297      -1.18154800       0.72914471
Si       8.17195110       2.72657425       5.31432505      -0.65502884      -0.65819077       0.68952341
Si       8.05868897       5.35596204       2.75444474       0.78709783       0.24684843      -0.38957557
Si       8.24215698       5.34524334       8.19789364      -1.00241866       0.36710268      -0.52882153
Si       8.26136088       8.23127964      -0.07143871      -0.33969807      -0.10834897       0.71219026
Si       8.20074082       8.05838887       5.41281234      -1.22275195       0.16713759      -0.90735771
Si       9.53250219       1.36910048       4.07475980       0.72070809      -0.73435675       0.30824074
Si       9.42317624       1.43339175       9.53705586       0.21159998      -0.94594134      -0.11592057
Si       9.46444836       3.99163828       1.34603121       0.13016354       0.67948252       0.83097028
Si       9.45316048       3.94055993       6.76831794       0.51008440       0.76619579       0.03347978
Si       9.51750589       6.70578422       4.06433119      -0.45651275       0.39348556      -0.77916518
Si       9.53323960       6.78280633       9.48541388       0.52490508      -0.04051207       0.21625409
Si       9.57241353       9.69447577       1.35160948      -0.61425603      -1.03242314      -0.32588779
Si       9.35025975       9.45423439       6.75011747       0.11513394       1.06190316       1.10668388
64
Lattice="10.862 0.0 0.0 0.0 10.862 0.0 0.0 0.0 10.862" Properties=species:S:1:pos:R:3:forces:R:3 pbc="T T T"
Si       0.02802311       0.05865675       0.17217246      -0.53389762      -0.18701235      -1.44436058
Si       0.05407334       0.01942864       5.40291990       0.09716335      -0.81617036      -0.39971975
Si      -0.02385753       2.62720879       2.73784662       0.23927215       0.11166855      -0.07532169
Si      -0.05331937       2.76294370       8.15233190       0.66121207      -0.06143405      -0.04197213
Si       0.00804799       5.42281659      -0.11495724       0.21518555       0.41997513       1.22054675
Si       0.00469359       5.48031064       5.51001018      -0.01707043      -0.99180600      -0.11213818
Si      -0.04074627       8.21573776       2.63186270      -0.48821754      -0.17629502       0.59148158
Si      -0.03717793       8.02229131       8.13383817      -0.13838657       1.05371795      -0.23704577
Si       1.44622610       1.29626892       1.44593987       0.72618504       0.77411170       0.10258517
Si       1.27109480       1.32515422       6.80769248       0.90107387       0.98042844       0.14636589
Si       1.27603324       4.07042282       4.09866966      -0.06189586      -0.57290912       0.50945826
Si       1.40276128       4.08977086       9.51639239      -0.40727496      -1.02494285      -0.06599396
Si       1.30465590       6.91365270       1.30219915      -0.47785605      -1.25762324       0.12896037
Si       1.43404360       6.66649213       6.83593149      -0.92276928       0.77378933       0.10049913
Si       1.37071421       9.36544920       4.06294872      -0.25089352       0.57035585       0.16204304
Si       1.21039394       9.49811657       9.51973521       0.00014737      -0.38097143       0.53321310
Si       2.77763281      -0.23911528       2.68150021       0.33214586       1.03901235       0.00625231
Si       2.57729950      -0.01984335       8.23236964       0.60435711       0.64727038      -0.08245191
Si       2.83576981       2.85319540       0.06966385      -0.70813097      -1.18979674       0.03446707
Si       2.74234839       2.69834153       5.44473400      -0.30620204       0.49565910       0.51394621
Si       2.49742819       5.48633416       2.76206744       0.86546470       0.07475165      -0.56987578
Si       2.67781004       5.31711757       8.12065409       1.34386176       0.30640903       0.41804707
Si       2.64168999       8.17899497       0.00830226       0.86127030       0.13585183      -1.21699249
Si       2.64936888       7.97153803       5.40794714       0.90394883       1.29986171       0.66196742
Si       4.00868096       1.35715976       4.03601254      -0.46451509       0.14856944      -1.15552864
Si       4.08771125       1.40743291       9.51158328      -0.13941361      -0.45293431       0.09115843
Si       4.05951902       4.21983812       1.46361899      -0.06211902       0.64248286      -0.39797588
Si       4.19705127       4.12547873       6.82866240      -0.79288330      -0.77442122      -0.49690492
Si       4.03015243       6.72609473       4.03501499       0.19695963      -0.47115225       0.35281375
Si       4.00409501       6.72606245       9.49844837       0.09629714       0.63874851      -0.21248126
Si       4.18906520       9.46508988       1.15793231       0.29513371       0.12313363       0.94836032
Si       3.96568960       9.56601154       6.84594374       0.26516560      -0.97602845      -0.76258973
Si       5.64313799       0.05991000      -0.09439045      -1.15561789      -0.35951170      -0.00919409
Si       5.27257651      -0.00988921       5.28083739       0.92075515      -0.43069648       1.38105268
Si       5.36728992       2.78114364       2.67566534       0.27593351      -0.28646297       0.93821592
Si       5.47860790       2.73615432       8.18338868      -0.18914177      -0.28138017      -0.51341522
Si       5.47168473       5.48645301      -0.01087036      -0.14628994      -0.07905586       0.51299755
Si       5.49544934       5.43138058       5.43135280      -0.12815942      -0.00392020      -0.58597592
Si       5.40202342       8.04055899       2.71553757       0.09846377       0.48731047      -1.02156070
Si       5.44759918       8.08037238       8.07780978      -0.84094589       0.65923660       0.67808717
Si       6.76784380       1.48675017       1.34961316       0.56356736      -0.10613260      -0.30467409
Si       6.68918891       1.36785109       6.68295631       0.16314639      -0.35758169       0.28140703
Si       6.85098643       3.98704439       4.12880588       0.09491087       0.45054783      -0.62097593
Si       6.79862424       4.10584869       9.49436852      -0.29032229      -0.38792862       0.62588966
Si       6.91318639       6.80633392       1.36295541      -0.49359638      -0.90188308       0.82972692
Si       6.81613275       6.77395410       6.77559915       0.92494405       0.52136277      -0.41879845
Si       6.70766963       9.48402215       3.98811840       0.12184780      -0.26796501       0.77282534
Si       6.89691663       9.40262337       9.47587552      -0.88518020       0.71134742      -0.97003711
Si       8.02598418      -0.01543695       2.66219757      -0.14097239       0.95855433       0.65707797
Si       8.08739345       0.08871450       8.13738524       0.13813452       0.17817033       0.43422218
Si       8.20513490       2.77020311      -0.06421322      -0.49841230       0.06489226       0.67661753
Si       8.24890235       2.62764489       5.44531948      -1.12569570       0.06636448       0.01115078
Si       8.33181288       5.42214152       2.81549179      -0.81034782      -0.13354658      -0.42314199
Si       8.13087795       5.39819472       8.20083195       0.11922299       0.52885842      -0.89458384
Si       8.15025589       8.13031215      -0.01757091       0.59691606       0.61510874       0.83488769
Si       8.25125174       8.31007693       5.44027605      -0.85989475      -0.52872945       0.14537918
Si       9.47809050       1.26021052       4.09484281       0.05187218      -0.13450833      -0.86332381
Si       9.56120132       1.40742334       9.54093923      -0.33697427      -0.78911451      -0.05952325
Si       9.59095876       4.04033338       1.31944112      -0.03704494       0.32198274       0.35607938
Si       9.45135477       4.05648916       6.76094851       0.39567878       0.63741402       0.55636317
Si       9.62973945       6.85240293       4.17496717      -0.61022726       0.54476373      -0.71706858
Si       9.44206485       6.78246560       9.56083952       0.43839930      -0.41519135      -0.87764713
Si       9.40573101       9.60198845       1.37599069       0.42502080      -0.78249687      -0.52115738
Si       9.52935597       9.70787099       6.85070120       0.38669147      -1.40210873      -0.14171586
64
Lattice="10.862 0.0 0.0 0.0 10.862 0.0 0.0 0.0 10.862" Properties=species:S:1:pos:R:3:forces:R:3 pbc="T T T"
Si      -0.10829871      -0.03370197       0.02905109       0.15982548       0.08517636       0.81080929
Si       0.05585598       0.03036080       5.40266330      -0.75340783      -0.52166390       0.46606220
Si       0.04500922       2.82750766       2.89216237      -1.25664776      -0.69050717      -2.11901859
Si       0.16904476       2.65505939       8.18788335      -1.30964098       0.52146329      -0.23982757
Si       0.01154326       5.50151207      -0.06115209      -0.56527128       0.70324024       0.98569754
Si       0.13972474       5.44481920       5.46812988      -0.83744840       1.06940346      -1.25749443
Si      -0.05160393       8.13516984       2.68362395       0.11024317       0.29612439       0.46488257
Si       0.03715205       8.03360221       8.14297616      -0.65437037       0.98111262       0.16385450
Si       1.30192942       1.39559321       1.32671640      -0.38233682      -0.06997420       1.03956844
Si       1.45953486       1.28961357       6.81833953      -0.74794962       0.26030294      -0.55983652
Si       1.42964200       4.12547180       4.06592714       0.06286328       0.03818104       0.82558498
Si       1.29649409       4.07958658       9.63949288       1.56624980      -0.31044451      -1.35173536
Si       1.39331828       6.81943180       1.45420990      -0.28436926      -0.60660505      -0.72660074
Si       1.43367322       6.82803045       6.76245571       0.23856876       0.07554268      -0.10168895
Si       1.35952809       9.43781159       4.06280415       0.14452214       0.80092735      -0.23173722
Si       1.26303056       9.46015160       9.63362261       0.23330560      -0.42362956      -0.78753412
Si       2.71037423       0.11311189       2.75264856      -1.07678269      -0.99163177      -0.61779874
Si       2.62820534      -0.05001481       8.21823320       0.27575110      -0.80529814       0.38946901
Si       2.73198276       2.68434422       0.06420269       0.45716303       0.68432402      -0.44696909
Si       2.66002418       2.66759988       5.38103308       0.45760703      -0.10049427       0.20289562
Si       2.75830768       5.45099867       2.80610017       0.83005229       0.54571332      -0.96183221
Si       2.71670806       5.43968089       8.08268403      -0.24773860      -1.21940121       0.59962192
Si       2.73890815       8.10462197       0.01962078      -0.72242138       0.48584712       0.42906514
Si       2.80094344       8.18620517       5.42171712      -0.01102615      -0.19893251      -0.02365074
Si       4.07330313       1.35542453       4.05750497       0.72815503      -0.06053404       0.68981467
Si       4.02962495       1.23630764       9.51282219       0.02011592       0.79190536       0.05936423
Si       4.14734613       4.20734303       1.27531414      -0.42082915      -0.67264896       0.73310706
Si       4.04725570       3.93874707       6.73243628      -0.20035958       0.73086165       0.44193418
Si       4.21246044       6.83693370       4.07278411      -0.51301331      -0.01207780      -0.22537468
Si       3.97212857       6.77247568       9.50061286       1.22617554      -0.50476196      -0.01973449
Si       3.95492037       9.57225472       1.34781343       0.87154297       0.24442266      -0.24649170
Si       4.05585991       9.47422470       6.92795795      -0.18747042       0.23218309      -0.53840593
Si       5.47237478      -0.07606721      -0.09525788      -0.93339181       0.64995027       1.42478756
Si       5.40173830      -0.13983000       5.45865575      -0.93115196       1.73725909       0.63688871
Si       5.39985993       2.73107750       2.69848415       0.18617009       0.59380447      -0.23203572
Si       5.36586210       2.56557854       8.07978123      -0.01342952       0.35867002       0.54125522
Si       5.57268556       5.49584188      -0.06448649      -0.34435878      -0.01742314      -0.19259748
Si       5.38400742       5.32951688       5.41402183       0.84996995       0.03313291      -0.22106911
Si       5.42894880       8.24248597       2.58148846       0.26215938       0.04229090       0.99789909
Si       5.38735357       8.07255246       8.17191501       0.36229971      -0.41521712      -0.13286204
Si       6.71568708       1.43044588       1.27484926       0.42626652      -0.98731412       0.60302096
Si       6.77507791       1.38669160       6.68139391      -0.01330301      -0.92370260       0.42859366
Si       6.89409378       4.07513795       3.99144883      -0.96384218      -0.01678305       0.36084678
Si       6.77884084       3.89869275       9.45985330       0.08893952       0.51695759      -0.04813051
Si       6.89879214       6.91633949       1.34134069      -1.17839656      -0.43936975      -0.38307288
Si       6.77307572       6.68472757       6.77506638      -0.42974052       0.22739041       0.01200634
Si       6.75612162       9.50451686       4.21221971      -0.02508590       0.30601678      -2.79734970
Si       6.71829222       9.47203343       9.46963398       1.19851218      -0.20328475      -0.85451415
Si       8.14617710       0.11717306       2.79886779      -1.23625006      -0.32673621      -0.15370581
Si       8.14879028       0.03639691       8.11369001      -0.48581228      -0.07747918       0.27944714
Si       8.22616853       2.67063027       0.02885021      -0.50973200       0.61430883      -0.12603697
Si       8.16567542       2.74634786       5.44732872      -0.06034062       1.14927080       0.38917522
Si       8.12711523       5.55383367       2.68913078       0.44123992      -0.88275249      -0.23932283
Si       8.13415504       5.30911673       8.08855155       0.01002820      -0.07712104       0.11257617
Si       8.15850883       8.17508922      -0.06736495       0.36453176       0.62068780       0.06450599
Si       8.02422016       8.16837195       5.41769066       1.28878744      -0.78904344       1.35944796
Si       9.44588509       1.45223364       4.16220056       1.52232941      -0.64768191      -0.54278181
Si       9.51920524       1.35050048       9.53014587       0.20128264      -0.05541164      -0.89283881
Si       9.49447562       4.17641336       1.29474833       0.50131265      -0.26487970       1.06536749
Si       9.65753703       4.13765050       6.71312518      -0.53189320      -1.42343599       1.19054834
Si       9.41045143       6.87246800       4.05535212       1.15388775      -0.58648666       0.83312092
Si       9.40429573       6.75316294       9.41864474       0.66092796      -0.13015654       0.21524126
Si       9.39218217       9.52193658       1.48269678       0.35565309       0.14204357      -0.92004808
Si       9.48441416       9.48465473       6.82954147       0.57137274      -0.08563061      -0.62436319
64
Lattice="10.862 0.0 0.0 0.0 10.862 0.0 0.0 0.0 10.862" Properties=species:S:1:pos:R:3:forces:R:3 pbc="T T T"
Si      -0.01906996       0.03359810       0.03661319      -0.43979807       0.11670751       0.17055784
Si       0.02696491      -0.04088249       5.25333558       0.00804632       1.23718326       0.69147052
Si       0.12310154       2.68916301       2.74652815      -0.82160041       0.00192535      -0.07752468
Si       0.04369654       2.65100796       8.19085357      -0.02650093       0.58952261      -1.04689366
Si      -0.04439485       5.46915590      -0.06664357       0.54422945      -0.13292393       0.03414245
Si       0.01804658       5.36237614       5.48999119      -0.80360586       0.82271385       0.12120629
Si       0.00826718       8.07741560       2.56015712       0.04119983      -0.05359245       0.81026298
Si      -0.02577876       8.17065773       8.09869397       0.22272279      -0.96386762       0.94598226
Si       1.40263767       1.23577084       1.41595632       0.60007962       0.80872811      -0.17439624
Si       1.38381261       1.43376393       6.70048853      -1.02605329      -1.00044872      -0.02704437
Si       1.34371881       4.12087224       4.13944562       0.62403415      -0.18220156      -0.99202819
Si       1.31977143       3.94417294       9.58695511       0.20070017       1.38282626      -0.43364095
Si       1.42770585       6.80268488       1.20556869      -0.48548229       0.12267436       0.03097617
Si       1.38083578       6.65621370       6.91039376       0.04159475       1.34153579      -0.79127211
Si       1.35436401       9.44632023       4.00799382      -0.12829679      -0.15704676      -0.84565191
Si       1.24669475       9.59371228       9.52408520       0.59954628      -0.64359067      -0.78420687
Si       2.81614707      -0.08430888       2.74665658      -0.24424288       0.77489348       0.40359061
Si       2.61818648       0.06262659       8.10483888      -0.48221419      -0.61806864      -0.11903857
Si       2.75119327       2.74483716       0.02284432      -0.25826891      -0.54881404       1.15025931
Si       2.69779331       2.72063307       5.39383065       1.34526968       0.51250559      -0.15580290
Si       2.67000775       5.55238849       2.70886475       0.06098210      -0.57584188       0.61752043
Si       2.75766066       5.34639599       8.20900721      -0.06956385      -1.05089864      -0.04522918
Si       2.72189304       8.24965802      -0.07608648       0.53825512      -0.19666687      -0.00037926
Si       2.67231311       8.28077147       5.45835857      -0.33430508      -1.71193501       0.63332018
Si       4.19040677       1.42369776       4.05763292      -1.01128346      -0.64698016       0.03120934
Si       3.89862893       1.33544121       9.45748682       1.02281469       0.90924555      -0.07798747
Si       4.06004137       4.13004574       1.45945384       0.15572088       0.07025854      -0.46924524
Si       4.17493092       4.00376337       6.78437709      -0.57212310       0.47963314      -0.17781922
Si       4.02403636       6.81604459       4.18486475      -0.52187776       0.33242480      -0.45750047
Si       4.06867495       6.75547793       9.46124213       0.29946164       0.98257378       0.21625286
Si       4.13214171       9.52421273       1.38601944       0.42920696      -0.37476373      -0.80050462
Si       4.00289922       9.61730569       6.75847053       0.44926428      -0.18700594       0.47611017
Si       5.35583128       0.17438659      -0.06388788       0.27322843      -1.14341192       0.41695459
Si       5.45595446      -0.02738233       5.39718955      -0.74772809       0.24831562      -0.06902507
Si       5.49514845       2.79189213       2.75679202       0.25811094       0.05362930      -0.22673173
Si       5.45897194       2.55589507       8.08927430      -0.35812868       0.47196445       0.88873660
Si       5.43314317       5.45938903       0.01778131      -0.70265956       0.05588153       0.56802339
Si       5.44392124       5.50228589       5.41388625       0.28762089      -0.38530445       0.95634814
Si       5.38857142       8.13901055       2.86222174       0.24489149      -0.30052763      -1.14236050
Si       5.40485743       8.22847082       8.08169860      -0.59871825      -0.15762978       0.23894877
Si       6.77237249       1.41202850       1.31784930       0.54173102       0.37757964      -0.10253833
Si       6.77811513       1.25798427       6.70625355       0.99812203       0.05309607       0.96961797
Si       6.84749529       4.05596967       4.22270017      -0.21119980       0.13191438      -0.46958741
Si       6.67397014       4.02021888       9.59957720      -0.03301180      -0.49975882      -0.81899890
Si       6.78273463       6.74221717       1.44037171      -0.38810889       0.26470697       0.36675830
Si       6.81260949       6.89823232       6.81609148      -0.00481228      -0.88007595      -0.14406260
Si       6.77010613       9.47061105       4.13659447       0.80423288       0.01163123      -0.68061728
Si       6.70503909       9.59640103       9.44434105       0.87997082      -0.24918595       0.57580205
Si       8.10182199      -0.00743827       2.68531743      -0.09344790       0.13731610       0.32281641
Si       8.27041150      -0.07780895       8.02404104      -0.49242697       0.07191760       0.35970199
Si       8.22079616       2.80243424      -0.06994463       0.02186448      -0.93218776       0.58669384
Si       8.17924739       2.74835995       5.62629227      -0.07718837      -0.38721094      -0.90055432
Si       8.12355054       5.30930628       2.72226659       0.21258234      -0.33753883      -0.42498408
Si       7.98781605       5.43407166       8.33481078       0.43188183       0.06323721      -1.39259344
Si       8.07295437       8.10434130       0.07547438      -0.43244435       1.04502353      -0.49784510
Si       8.19886981       8.05280113       5.33081739       0.41541560       0.35995093       0.38796368
Si       9.42972756       1.43010048       4.08341327       0.31027011      -0.21330072      -0.28853875
Si       9.56682013       1.34626744       9.45067700      -1.05204791      -0.40206694       0.34627575
Si       9.62282893       4.06864515       1.33608247      -0.40857835      -0.20199997       0.44744207
Si       9.49437926       4.11321770       6.91471434       0.01903484       0.21113770       0.86280763
Si       9.50540705       6.64734427       3.95694002       0.73611847       0.61343883       0.52174501
Si       9.38358146       6.81788253       9.54277839       0.65880611       0.38965401      -0.46407264
Si       9.49179587       9.49636103       1.33130029      -0.33586714       0.06938509       0.12000216
Si       9.65982154       9.44750929       6.63400551      -1.11542573       0.01971408      -0.17082377
64
Lattice="10.862 0.0 0.0 0.0 10.862 0.0 0.0 0.0 10.862" Properties=species:S:1:pos:R:3:forces:R:3 pbc="T T T"
Si      -0.06038055      -0.01204227      -0.00018347      -0.39161835      -0.17813848       0.36284547
Si       0.01026461      -0.03188049       5.40722740       0.35933468      -0.00500168       0.55707352
Si      -0.06404245       2.61106545       2.69236892       0.74957204       1.74870402      -1.98702581
Si      -0.06144668       2.63253787       8.28685790       0.46150335       0.55307126      -1.38294313
Si       0.11552595       5.44324410      -0.03271580      -0.51016656       0.07912437       1.28591290
Si      -0.00037487       5.36839177       5.48847367       0.44928483      -0.39088705      -0.48920459
Si      -0.07467648       8.07992887       2.95210466       0.74820261       0.40234131      -0.94834661
Si       0.05464501       8.24682554       8.15977436      -0.06070643      -0.58522986       0.51082105
Si       1.32155740       1.41909476       1.21207953       0.05870105       0.40986745       0.05101811
Si       1.35429818       1.31990790       6.84952341      -0.32992574      -0.04759809       0.18312291
Si       1.25803910       3.88786404       4.03195724       1.05552956       1.35077784       0.45434959
Si       1.35445772       4.16916527       9.39228166       0.33490078      -1.16569262       0.34352010
Si       1.31500910       6.89721836       1.40613161      -0.10694199      -0.93947257       0.76822963
Si       1.34744914       6.83376430       6.73915218      -0.25949559       0.22203864       0.36669908
Si       1.42711005       9.59231006       4.02587996      -0.24204642      -0.52297958       0.24446609
Si       1.42382323       9.58153543       9.68274523       0.43914124      -0.63481122      -1.29310706
Si       2.66342690       0.09642937       2.57788789       0.53570693      -0.24296326       0.25059860
Si       2.79124172       0.00463448       8.16522271      -0.04552157      -0.00168205       0.38489499
Si       2.79220069       2.78475924      -0.10341774      -1.29642548       0.97512273       0.92959435
Si       2.68813667       2.62788937       5.43572333       0.13054751       0.16598669      -0.00975204
Si       2.69653170       5.37596668       2.66636262      -0.36466523      -0.04300417       0.14259151
Si       2.71115641       5.48551922       8.06572464       0.00749572       0.25395711       0.10267003
Si       2.77570417       8.13556476       0.15748562      -1.02675662      -0.09064293      -1.13313817
Si       2.72334749       8.21160065       5.47801681       0.01430996      -0.61039895      -1.19299667
Si       4.10886802       1.30141184       4.06246076      -0.12791936      -0.16648954       0.27662813
Si       4.10154484       1.48456917       9.54683749       0.56618246      -0.29816235      -2.41772605
Si       4.17170622       4.10172428       1.29548151      -0.72890509      -0.51253483       0.78222065
Si       4.02675263       4.12157235       6.73380220       0.34052078      -0.28258204      -0.70416371
Si       4.06658951       6.77991322       4.02978603      -0.92602321       1.04319365      -0.49159114
Si       3.97789534       6.73482515       9.61583839       0.10210060       0.14323301      -0.33464506
Si       4.06474136       9.55675570       1.27630545       0.89657290       1.29666616       0.62536472
Si       4.11674186       9.42302691       6.80799062       0.49717306       0.74943849       0.77516883
Si       5.43271035       0.14971508      -0.09134821       1.07385342      -1.16293133       1.38748825
Si       5.55353336      -0.11067170       5.42851520      -1.89982437       1.31627291       0.84373480
Si       5.43990489       2.74674061       2.77974047       0.17690026      -0.53986902      -0.91424096
Si       5.50755702       2.88928873       8.08097638      -0.93881649      -1.28280348      -0.05357909
Si       5.45480768       5.49448338       0.03868873       0.46502065      -0.17079383      -0.45691113
Si       5.39236234       5.44850074       5.25881632      -0.31441935      -0.55342616       1.38136292
Si       5.39837358       8.32171994       2.75167297      -0.65460797      -0.98189043      -0.55530730
Si       5.37700588       8.10939235       8.34049271       0.02142200      -0.01366884      -0.66345334
Si       6.91067412       1.34499921       1.41680766      -0.96361126       0.09260177       0.21172646
Si       6.79351820       1.35514227       6.75943194       0.11660103       0.49146508      -0.09279088
Si       6.78782717       4.14907718       4.01471760       0.21859857      -0.53194401       0.14675460
Si       6.79921120       4.14520672       9.45034669       0.46225995      -0.18977065       1.49653073
Si       6.72386541       6.90563260       1.41198627       0.50386401       0.39008895      -0.61189721
Si       6.55089654       6.69559290       6.82147490       0.79126815       0.26331730       0.81109473
Si       6.76128978       9.48881877       4.11288881       1.88606156      -0.10425304      -0.78898586
Si       6.85606944       9.45321218       9.61325627      -0.51431456       0.81181775      -1.06692604
Si       8.26776794      -0.02360887       2.78865446      -0.41723812      -0.71018838      -0.52691233
Si       8.12363134      -0.12547903       8.00605780      -0.34678977      -0.19972348       0.21793957
Si       8.17162470       2.72073372       0.04153956       0.22187582       0.31344718      -0.79479369
Si       8.12512955       2.78355489       5.35679507       0.41659740      -0.97694101      -0.13518791
Si       8.07810882       5.54614901       2.72792159       0.01332538      -0.11480815      -0.33260176
Si       8.13483746       5.45191795       8.15513019       0.47582089       0.08753679      -0.90750153
Si       8.26146200       8.05420297      -0.10726247      -0.92066696       0.24353658       1.81061283
Si       7.93042287       8.01394338       5.48611031       0.97451256      -0.06635029      -0.15910362
Si       9.66871177       1.36390052       4.03232783      -2.26929531      -0.76078379       1.60588680
Si       9.41552831       1.18865714       9.37706760      -0.18500671       0.67129916       1.54127676
Si       9.46740826       4.22744912       1.44864952       0.68891676      -1.16624028      -1.01246344
Si       9.50065085       4.00698040       6.76034186      -0.15797385       0.11069811       1.20930603
Si       9.44800645       6.66293145       4.18145399      -0.44300111       0.60189760       0.57984477
Si       9.57752787       6.71478621       9.54419706       0.37232008       0.23873333      -1.71405402
Si       9.54528457       9.32427710       1.38513995      -0.08751772       0.97996141       0.29954165
Si       9.48244615       9.37365986       6.65824405      -0.09579737       0.23846082       0.23045900
64
Lattice="10.862 0.0 0.0 0.0 10.862 0.0 0.0 0.0 10.862" Properties=species:S:1:pos:R:3:forces:R:3 pbc="T T T"
Si      -0.02201404       0.09307137       0.04396806       0.22305363      -0.75719519      -0.44938512
Si       0.05369106      -0.02772317       5.41501546      -0.69942189       0.32564724       0.32775808
Si      -0.01106589       2.68811180       2.84470946       0.56583974       0.13296117      -0.89880672
Si      -0.02403142       2.68797363       8.24332932       0.27016505       0.27136269      -1.34793531
Si      -0.03707887       5.23466107      -0.10184068      -0.39894341       1.41153548       0.39648751
Si      -0.13151609       5.49272932       5.50197372       1.27184799       0.88659500      -0.69597601
Si       0.10278452       8.21064390       2.62048422      -0.01011629      -0.29564262       0.88829582
Si       0.07667344       8.24440106       8.15608573      -1.10082215      -0.73193991      -0.17088238
Si       1.45293861       1.35189016       1.38584947      -1.08556414       0.86649522       0.11531968
Si       1.39741061       1.44867677       6.73960791      -1.15350699      -1.42592493       1.02109901
Si       1.29464080       4.19324829       4.14521704      -0.08874094      -0.74439971      -0.01727188
Si       1.39170550       3.98722457       9.51312012       0.97212151       0.60090300      -0.60377010
Si       1.22194265       6.70660810       1.28567511       0.51195702      -0.08668866      -0.56081177
Si       1.33512588       6.74586627       6.90214209       0.27533767      -0.27954886      -0.05383745
Si       1.39855602       9.48911839       4.09641039       0.61320556       0.42795116      -0.56796404
Si       1.41259604       9.51966022       9.45704755      -0.58093528       0.96625478       0.85621669
Si       2.80199629       0.06469842       2.67827953      -0.01003407      -0.89541601       0.92572164
Si       2.72324329      -0.08208936       8.02973731      -0.29525048       0.27242854      -0.42877774
Si       2.75807252       2.76303070       0.04929000       0.25915225      -0.66186227      -0.10426505
Si       2.66934358       2.70067489       5.42411122       0.78644179       1.21961080      -0.90486975
Si       2.61290090       5.44491075       2.67717863       0.26347801      -0.87490395      -0.76051715
Si       2.90746337       5.42788087       8.19572137      -1.35658685      -0.89029803      -0.81475950
Si       2.63429135       8.12639735      -0.02336180       0.22959578       0.14805886       0.84424028
Si       2.63458351       8.09574026       5.50906650       0.70088389       0.03018546      -0.13354677
Si       4.13300871       1.38149138       4.11086164      -0.40811486       0.20692753      -0.40651389
Si       3.90966936       1.27396532       9.42377061       0.86895939       0.36146589       0.92368262
Si       4.21327204       4.02338399       1.40918756      -1.50557553       0.03460427       0.68110679
Si       4.16214950       4.02642607       6.66068493      -0.60321762      -0.66147414       1.57951455
Si       3.88135987       6.74157861       4.01973812       1.15855910       0.62679875       0.72231638
Si       4.04662604       6.77545157       9.62314696       0.96058611       0.32220072      -0.16152688
Si       4.09788510       9.51317182       1.34283202      -0.94894298      -0.43242159      -0.06994038
Si       4.19226524       9.42290969       6.80863505      -0.87318722       0.29824742      -0.71933333
Si       5.35711485      -0.03087109      -0.01531174       0.16475420       0.88277490      -0.42595407
Si       5.44876316       0.00816473       5.41270603       0.20539959      -0.58802824       0.19053337
Si       5.55476270       2.69901073       2.75768701      -0.05279972       0.21673919       0.37781965
Si       5.42077058       2.54970936       8.15585966      -0.57598327       1.64200713       0.20905170
Si       5.42335133       5.35818506       0.06636380       0.24645087       1.32375859      -0.15956325
Si       5.38162210       5.35615148       5.32190869       0.91151011       1.12260646      -0.42437385
Si       5.32187699       8.17768611       2.74403805       0.75287058      -0.90785248       0.13204589
Si       5.46148246       8.13919010       8.20805580       0.08926881      -0.37247002       0.69366113
Si       6.74421545       1.43469131       1.24075791       0.40689348      -0.74406261       0.07293992
Si       6.76287985       1.39685874       6.75489324      -0.44178976      -0.89659070       0.20854532
Si       6.96761391       4.08672375       4.05966666      -0.34298739      -0.04823821       0.32164410
Si       6.70000614       4.15518240       9.47722185       0.20057936      -0.77154612      -0.75816779
Si       6.79576546       6.78754617       1.36313406       0.31072753       0.16047447       0.34105363
Si       6.73842202       6.77753621       6.80968139      -0.62330615      -0.06559496      -1.02469620
Si       6.80690898       9.45740850       4.08518485      -0.59841188       0.71487876      -0.58757863
Si       6.80156313       9.56684912       9.54663709      -0.11777030      -0.58671644      -0.12114759
Si       8.10140632      -0.02146819       2.63028511      -0.11296077      -0.13750090      -0.15861228
Si       8.01171941       0.11289170       8.18227995       1.00448801      -0.63597713      -0.30225161
Si       8.11444784       2.87569581      -0.05813626      -0.31225534      -0.61023870       0.28766463
Si       8.15877712       2.62322525       5.52843041       1.02040538       0.96339451      -1.35929116
Si       8.34681342       5.51413686       2.78139648      -0.94709359      -0.12563563      -0.85021679
Si       8.08065824       5.48480362       8.10587549       0.73658956      -0.47099334       0.26088523
Si       8.21544338       8.11969617      -0.09824275      -0.76019166       0.17043112       1.00632159
Si       8.08976310       8.17016295       5.47261026       0.68405541      -0.14774727       0.27042216
Si       9.48410110       1.25506184       4.02695932      -0.22526623       0.10445402       0.78320998
Si       9.41046773       1.41771043       9.51793828       0.19059368      -0.29402440       0.44234540
Si       9.52064957       4.00695029       1.37798764       0.19080473       0.23430267       0.51356366
Si       9.52413378       4.11299798       6.76904408      -0.90486215      -1.10589142       1.27852852
Si       9.58781179       6.97938450       4.05898344      -0.14537906      -0.23154391       0.59521207
Si       9.53396875       6.81038070       9.45037838       0.45124673      -0.70479729      -0.36287435
Si       9.52758015       9.42365525       1.35814720      -0.41493619       1.09859804      -0.67544889
Si       9.45064996       9.56490800       6.85590365       0.19713165       0.13851182      -0.18633934
64
Lattice="10.862 0.0 0.0 0.0 10.862 0.0 0.0 0.0 10.862" Properties=species:S:1:pos:R:3:forces:R:3 pbc="T T T"
Si      -0.09411480       0.08672982       0.03460697       0.19680414      -1.76237409      -0.81804686
Si      -0.01811945       0.01874489       5.53131761       0.04745872       0.61761005      -0.49818987
Si       0.02075999       2.76645050       2.81501135      -0.14761652      -0.62272432      -0.84208948
Si       0.04603577       2.64183467       8.10542331      -0.75591256       0.16937910       0.51331172
Si      -0.02753256       5.33829752      -0.01632602       0.02475710       0.28308666      -0.42633182
Si       0.06399837       5.48066868       5.45455405      -2.05283043      -0.69201369       0.14932997
Si      -0.00621423       8.18423589       2.53090616       0.74467519      -0.51963179       1.21864958
Si      -0.01442548       8.18475142       8.14924839      -0.22515282      -0.20421143       0.16574736
Si       1.23593441       1.29408935       1.33783256       1.62696913       1.34646450       1.12928648
Si       1.45605705       1.37026552       6.83267123      -0.44049217      -1.34163212       0.16561828
Si       1.29601407       4.15470741       4.11045454       0.93529684      -0.67937706      -0.18275657
Si       1.36737113       3.94603262       9.50617430      -0.00434287       1.03807107      -0.13398012
Si       1.39255727       6.72681626       1.25121202      -0.51423737       0.59639026      -0.24447411
Si       1.24682398       6.77924772       6.78590578       1.55690734       1.29030462       0.49028349
Si       1.30551248       9.48511680       4.14657803      -0.48236706       0.67551696      -1.64861887
Si       1.36739981       9.46625137       9.53376750       0.01537866       0.45139182       0.33372965
Si       2.71780166      -0.07522836       2.62936000      -0.81655608       0.43076041       0.94903370
Si       2.81139950      -0.09644339       8.15535372      -0.10812207       0.32860639       0.04321810
Si       2.75447903       2.72195538       0.03176106      -0.67189781      -1.25171097      -0.41923053
Si       2.60739206       2.67058518       5.40961986       1.60293805       1.03840081      -0.41381198
Si       2.61716448       5.39376037       2.63327052       1.04801557       0.02235454       0.83075265
Si       2.64375542       5.52255353       8.17998252       0.60310397      -0.98924849      -0.05689581
Si       2.82009489       8.05537822      -0.07894154       0.24755141       0.55056661       0.23982986
Si       2.65378090       8.13640213       5.33724811       0.23927155      -1.24322268       0.71687473
Si       4.05019550       1.30458542       4.04785050      -0.81319763       0.73604298      -0.66824604
Si       4.15043743       1.36430576       9.52153187      -0.52379558       0.51948996      -0.70672470
Si       4.04712701       4.11575484       1.25978713       0.66358809       0.32505140       0.75741865
Si       4.09047694       4.14537564       6.78039916      -1.31961945       0.00099793      -0.46609889
Si       4.06813582       6.72326062       4.06266138      -0.41657636      -0.40478985       0.09505817
Si       4.27629043       6.74081448       9.40586982      -2.31713160       0.39473469       0.10318471
Si       4.14171950       9.55019465       1.34257479       0.03592098      -0.78881926      -0.96818562
Si       4.07835153       9.38200165       6.66963602      -0.18622587       0.87829329       0.37608248
Si       5.53033593       0.06919886      -0.07276552       0.18374481      -0.57711130       1.14438031
Si       5.38203920       0.02479629       5.38387444       0.20149219       0.07614572       1.02723802
Si       5.40176386       2.66105349       2.61745685      -0.25535643       0.18009821       0.32631936
Si       5.42898802       2.83125005       8.08311732      -0.57342397      -0.71727005       1.06359411
Si       5.46567063       5.60150148       0.02705646       0.80469579      -1.45833687       0.69506432
Si       5.53611851       5.40869063       5.45170644      -0.53229113       0.18873849      -0.76304104
Si       5.37230165       8.09887971       2.74192245       0.75353393       0.70344968      -0.14041532
Si       5.41877267       8.14024460       8.10011153       0.90755569       0.10738947      -0.90635600
Si       6.90035750       1.27000363       1.48732909      -0.26392426       0.36681859      -1.06574448
Si       6.71002626       1.43948057       6.80180829       0.47769095      -1.02643564      -0.15584759
Si       6.76872980       4.01981406       3.96186561      -0.06477155       0.55421080       0.44558280
Si       6.72782884       4.08407660       9.53847147      -0.21579517      -0.22806565       0.99186655
Si       6.90763728       6.86070910       1.42037071      -0.47521032      -0.32757531       0.24733015
Si       6.87457535       6.77315816       6.79933524      -0.44960299       0.07504202       0.02360016
Si       6.73118912       9.54063903       4.12871005       0.43743392      -0.87627866      -0.28630853
Si       6.75773768       9.47327149       9.44345093       0.08382979      -0.09417789       0.59706637
Si       8.23713038      -0.00972961       2.90005928      -0.20111301      -0.39230261      -0.65541382
Si       8.10302852      -0.06198337       8.14319174      -0.52990476       1.45966629       0.15503418
Si       8.14256070       2.74841413       0.04757764      -0.20155814      -0.75900601      -0.25534093
Si       8.04978519       2.86097695       5.53673474       0.47869000      -0.75527535      -0.75888896
Si       8.24445070       5.40869714       2.74598897      -0.40491229       0.37162970       0.22979036
Si       8.04330870       5.33779491       8.20075426       0.68676645       1.15201467       0.11626865
Si       8.16826628       8.19370441       0.00973183      -0.49345033      -0.69778272      -1.20031841
Si       8.16632954       8.17544562       5.47720707       0.20990332       0.13176680      -0.45736515
Si       9.47550033       1.50452809       4.13867334       0.23275227      -0.51206193       1.14383708
Si       9.47955589       1.31635765       9.50013332      -0.52995399       0.84190148      -0.45606679
Si       9.51366184       4.01883910       1.40405375       0.30697309       0.37568619      -0.22509349
Si       9.45425016       4.09534712       6.92241884       1.08587488       0.01352868      -1.03355354
Si       9.59760956       6.85290109       4.07777489      -0.36677671       0.06264050      -0.28431689
Si       9.47170126       6.76491755       9.43139706       0.10643058      -0.12100106       0.80142464
Si       9.43829605       9.49748680       1.31578392       0.35479047       1.28647999       0.70634997
Si       9.46983258       9.55603862       6.87339454       0.45332447      -0.59828457      -0.85440439
64
Lattice="10.862 0.0 0.0 0.0 10.862 0.0 0.0 0.0 10.862" Properties=species:S:1:pos:R:3:forces:R:3 pbc="T T T"
Si      -0.03163024       0.01701347      -0.08484658      -0.72139188       0.12179833       0.99038947
Si       0.09439045      -0.04803924       5.36750239      -0.45390844       0.34447856       0.69928797
Si      -0.01237206       2.58552206       2.86505379      -0.23417497       0.21306136      -0.25101622
Si       0.07698137       2.59203412       8.21308991      -0.49911775       1.59672413      -0.91035055
Si       0.02129637       5.41660612       0.02302667       0.03838649      -0.22437578       0.19281158
Si      -0.12293395       5.43938349       5.42326475       0.66674907       0.05227942      -0.17789408
Si       0.04298798       8.00826944       2.63974971      -0.53503937       0.30487548      -0.15402103
Si       0.10428421       8.21285300       8.28995693      -1.09286033      -1.10424767      -0.98504200
Si       1.26655504       1.35315060       1.34180557       0.29059456      -0.41535891       0.14865625
Si       1.41151689       1.39782263       6.80679537      -0.05531521      -1.35091058      -0.23319544
Si       1.35377995       4.08207191       4.07613460      -0.38481688       0.03150544       0.53799290
Si       1.35800321       4.12583360       9.44356671      -0.37160382      -0.27050196       0.29653909
Si       1.47161015       6.74965386       1.29910976      -0.29465336      -0.17798086      -0.02469666
Si       1.29778729       6.70301604       6.88007953      -0.20310591       0.45758948      -0.24996325
Si       1.27031707       9.48531048       3.89018966       1.15811058      -0.21125536       0.84819598
Si       1.34812506       9.53058329       9.58781756       1.52734157       0.47690955      -0.36201872
Si       2.74780955      -0.01652197       2.63232054      -0.51170198       0.11034506      -0.15328915
Si       2.79124050      -0.04016376       8.11987498      -0.65649553       0.03668853      -0.02725423
Si       2.55377164       2.65838717      -0.09399203       0.76206293       0.23344697       0.46000851
Si       2.70628380       2.78238948       5.54171276       0.22850961      -0.33083925      -1.58228822
Si       2.72003436       5.41148998       2.71892108       0.25228458       0.32202707       0.79231846
Si       2.77080267       5.41381285       8.15473490       0.06478749       0.66242256       0.04009599
Si       2.77899036       8.12580129      -0.05302948      -0.50934857       0.80972648       0.63330688
Si       2.56516298       8.17727224       5.52510099      -0.46861308      -0.28695145      -0.92432643
Si       4.03966196       1.37397013       4.00330076      -0.11479998       0.29546683       0.70603566
Si       4.04765587       1.39351587       9.43275144       0.29444474       0.57502623      -0.08490383
Si       3.91625318       4.00666898       1.33662234       0.69503278      -0.14526722      -0.29531821
Si       4.07742632       4.08993337       6.79835906       0.45531039       0.32358876       0.05624858
Si       4.00150474       6.80867569       4.26690272       0.66345478      -0.36877962      -0.99610040
Si       4.10565840       6.90206425       9.45727499      -0.01110896      -1.96516470       0.61582641
Si       4.12567024       9.51440772       1.29383169       0.09286893       0.06473261      -0.24791447
Si       4.03883343       9.52744569       6.62817631       0.71847783      -0.08504983       0.86470233
Si       5.43116643       0.05467401      -0.13602373       0.24785779      -0.40608793       0.58858242
Si       5.45938840      -0.01515945       5.28873526      -0.33431024       0.08684647       0.16348406
Si       5.41687160       2.71735805       2.65160646      -0.72706960       0.76924369       0.83342022
Si       5.47752378       2.82233373       8.09253477      -0.01143040      -0.82256752       0.81757366
Si       5.37578957       5.42099532       0.11383216      -0.13071321       0.52061832      -0.81446474
Si       5.52928297       5.38639433       5.52927667      -0.30480474       0.58766534      -0.58116183
Si       5.38943048       8.13130235       2.70355875      -0.72009060       0.03249187       0.94307032
Si       5.38833482       8.15198974       8.12089544       0.62287284       1.03704453      -1.04981224
Si       6.69047063       1.37725685       1.38499829       1.18585700      -0.41547750      -1.17728168
Si       6.72689395       1.29381835       6.77964773       0.30730979       0.52848703      -0.17680578
Si       6.82978748       3.99077583       4.11398707      -0.59464846       0.22692622      -0.33063359
Si       6.80863410       4.17253084       9.54429972       0.11792420       0.03166315      -0.14035191
Si       6.73881890       6.86673241       1.39946271       0.92922189      -1.16295591      -0.29399589
Si       6.85435258       6.82618087       6.86767112      -0.12743122      -0.02025052      -0.59334268
Si       6.81942810       9.48518602       3.95353445      -0.19477289      -0.22166062       0.80997356
Si       6.83684094       9.53092297       9.38329009      -0.61068807      -0.60708053       1.29745990
Si       8.11818865       0.05255047       2.73200059      -0.12490521      -0.88068588      -1.41479695
Si       8.13695285       0.04499335       8.18584956       0.69522857       0.02362127      -1.42907543
Si       8.16892838       2.78643483       0.05181915      -0.56024463      -0.52994895      -0.18588180
Si       8.17919236       2.65540478       5.43239676      -0.69333285      -0.18814616       0.73542949
Si       8.14959177       5.34477624       2.75267528      -0.19696595       0.71200633      -0.64362281
Si       8.25095736       5.51145981       8.15928328      -0.06543876      -0.50004096       0.53701109
Si       8.19175174       8.24431253       0.06032731      -1.42478280      -0.73964001      -0.67281293
Si       8.17395456       8.21779467       5.45126728      -0.29852726      -0.00193992      -0.05348955
Si       9.38711255       1.20106878       4.15531935       1.47561570       0.85427035       0.19564404
Si       9.46792648       1.42646864       9.46276251      -0.35865137      -0.40454255       1.06165506
Si       9.59221100       3.98315679       1.42346338       0.01976182       0.54964646       0.27503559
Si       9.50742215       4.00730409       6.78807832       0.31277963      -0.05943007       0.64362547
Si       9.42334351       6.84369770       4.03296956       0.34067508      -0.58348524       0.33338102
Si       9.54641749       6.85535362       9.63231766       0.02967484      -0.06149522      -0.54644681
Si       9.53474474       9.45750635       1.37825181       0.46191594       1.27644167       0.38610977
Si       9.59683082       9.51019107       6.82075215      -0.05824720       0.27245315       0.25969782
64
Lattice="10.862 0.0 0.0 0.0 10.862 0.0 0.0 0.0 10.862" Properties=species:S:1:pos:R:3:forces:R:3 pbc="T T T"
Si      -0.05053912       0.01096455       0.02971732       0.47907675      -0.19029134      -0.85183804
Si       0.02791135       0.15192482       5.46024408       0.00823580      -1.16290424       0.02353196
Si       0.03794153       2.66924187       2.71044101      -0.13893465      -0.95269712      -0.29569748
Si       0.11106689       2.85204079       8.07976964      -1.43953909      -0.15262567       0.46763625
Si       0.06659870       5.43227235       0.10819039      -0.77589281      -0.04014344      -0.85493533
Si      -0.12301105       5.35948308       5.39071829       0.71832056       1.31609275      -0.45177427
Si       0.06252557       8.15975610       2.74223737       0.17137341       0.02262721       0.14842821
Si      -0.22062816       8.26002603       8.02915935       2.26544185      -1.72130524       1.80205271
Si       1.38759205       1.22603139       1.31086114       0.04919929       0.82499985       0.79739603
Si       1.34169476       1.44512113       6.82349181       1.05046635      -0.31362781      -0.64761613
Si       1.24632671       4.13990749       3.93976124       1.38023330      -0.02834365       0.88560607
Si       1.33269113       4.13908652       9.50932470       0.65228173      -0.02664078       0.42680504
Si       1.39966343       6.75066665       1.38166421       0.86461934       0.81736087       0.28620346
Si       1.26508583       6.75098945       6.80612596      -0.13010620      -0.00600789      -0.17170870
Si       1.42752879       9.51246569       4.19238843      -1.37371421       0.24600435      -0.28762872
Si       1.33295837       9.46422690       9.54410345      -1.32455574       0.51552525      -0.88136430
Si       2.67987299      -0.11986642       2.75170477       1.17978984       0.79277027      -0.20623475
Si       2.60772084      -0.04354435       8.12150130       0.40452843       0.31708072       0.35022608
Si       2.65670518       2.66343515      -0.05947269       0.50668391       0.08645897       0.01192059
Si       2.68875470       2.67876764       5.28213282       0.07781543       0.40009509       0.26755485
Si       2.85981276       5.44274832       2.73514676      -1.26941007      -0.10381469      -0.05042215
Si       2.74674500       5.35588917       8.10866187      -0.20869889      -0.03143359      -0.83948438
Si       2.70553967       8.19748538      -0.04813221       0.17537544      -1.59230646       0.15631210
Si       2.69363339       8.10445962       5.43846706      -0.26687319      -0.84767795       0.46933851
Si       4.20172063       1.35783133       4.03327511      -1.25416630      -0.22525435      -0.72120757
Si       4.09551995       1.29010993       9.43882047      -0.63257212       0.83443843      -0.18772437
Si       4.05134111       4.10174418       1.29606884       0.41499942      -0.56819437      -0.54268299
Si       4.16401633       3.90235566       6.74094122      -0.99764010       0.63656323       0.47094624
Si       4.09091902       6.80020139       4.12191732       0.61300064      -0.26801144       0.21976191
Si       4.03690934       6.78652111       9.36082281       0.08557678       0.20585389       1.11186485
Si       4.04399460       9.33726834       1.42453423       0.18209549       1.04453956      -0.20763470
Si       3.94936152       9.41008948       6.82953020       0.86516921       0.65271721       0.05763439
Si       5.28227242       0.01346227       0.04397309       1.45030485      -0.69312484       0.63587353
Si       5.33622494       0.00622556       5.50730090      -0.44322640      -0.21858081       0.32649810
Si       5.48512620       2.67258574       2.54711020      -0.55244961      -0.08633143       0.11004606
Si       5.54440839       2.80445892       8.28232561      -0.55520372      -1.07024117      -0.62498232
Si       5.43562353       5.52928022      -0.04702983      -0.40023942      -0.60197633      -0.08347221
Si       5.43958336       5.38685075       5.50694862       0.31574944       0.09199949      -0.88546372
Si       5.49388716       8.07109870       2.72121136      -0.39184365       0.75122696       0.92988554
Si       5.45210465       8.18295708       8.19887415      -0.04778168       0.29253618      -0.46212331
Si       6.93769560       1.29617409       1.37401738      -0.37647706      -0.32311303      -0.71933100
Si       6.69965434       1.38098305       6.76185700       0.98378589       0.18949308       0.95643996
Si       6.71891485       3.95722948       3.96183608       0.32135614       1.30261332       0.84546649
Si       6.90474009       4.06951195       9.64121307       0.20757273       0.64917752      -0.21469244
Si       6.76735145       6.82166837       1.33279316       1.09420236      -0.39115210      -0.23159690
Si       6.77382075       6.87334660       6.78958562      -0.95053186      -1.42428772       1.00118382
Si       6.67913158       9.62599119       4.13045363       0.73483172      -1.27202518      -0.28728790
Si       6.80884609       9.56280997       9.53993776      -0.66216605       0.43190852       0.24318973
Si       8.24157986      -0.09700898       2.77379517      -0.51228062       0.52717811       0.25458586
Si       8.16877773       0.10351299       8.25203032      -0.39207787      -0.07534565      -1.16433556
Si       8.36619437       2.67089639       0.03133809      -1.59930358       0.29122992       0.23113404
Si       8.10372666       2.71409890       5.37568431      -0.49283436       0.06699512       0.64750103
Si       8.11940496       5.36813671       2.67818338       0.00879501       0.41698059      -0.03135706
Si       8.13035777       5.49909008       8.13145036       0.00989306      -0.61754216       0.34705512
Si       8.16184963       8.22388836      -0.01289319       0.06924327      -0.81495029       0.29109989
Si       8.01434529       8.15604260       5.52930784       1.59471522       1.45495173      -1.91342773
Si       9.47725477       1.37696030       4.14718309       0.40216973       0.00056048      -1.10856366
Si       9.60254774       1.44627431       9.48851021       0.73609891      -0.31693356      -0.75474754
Si       9.57922954       4.02319550       1.39001341      -0.04425610       0.63164554       0.27073124
Si       9.45927242       4.08773067       6.74850999      -0.60340232      -0.38113822       0.47734134
Si       9.45464673       6.84379634       4.01229006      -0.51196010      -0.29697380       0.67722775
Si       9.51566324       6.75658328       9.53449190       0.05829524       0.60285084      -0.01768248
Si       9.57483790       9.49658947       1.36392687      -0.34945285      -0.46857334       0.25720346
Si       9.48895217       9.62187832       6.76565263      -1.43370593       0.86909466      -0.75866449
64
Lattice="10.862 0.0 0.0 0.0 10.862 0.0 0.0 0.0 10.862" Properties=species:S:1:pos:R:3:forces:R:3 pbc="T T T"
Si      -0.08191499      -0.06073377      -0.10504490       0.29184831       0.23535488       1.36958923
Si       0.03288656       0.04282308       5.39556619       0.39639564       0.15425956       0.69654670
Si       0.10990312       2.71360883       2.69706384       0.00396393      -0.33941223       0.59693681
Si      -0.01018010       2.72897280       8.01252720       0.08099438       0.19246872       1.21522989
Si       0.07359040       5.24943221       0.10835777      -0.00479846       0.61966628      -1.49013756
Si      -0.05194091       5.48744971       5.38957786       0.24504287       0.28741702      -0.41371232
Si      -0.09511982       8.09753984       2.72067932       1.54249946       1.00461161      -0.44674740
Si      -0.10813456       8.16598621       8.11323391       0.63925602       0.20626522      -0.42479695
Si       1.40551195       1.26496417       1.28884150      -0.50274174       0.05987158      -0.05266643
Si       1.43011297       1.48108607       6.72457721      -0.02071939      -0.94908968      -0.09448864
Si       1.43587127       4.20034302       4.06796812      -1.05122960      -0.02111728      -0.35897734
Si       1.50215802       4.02259658       9.41305165      -1.20395705      -0.23553348       0.86910264
Si       1.35832643       6.78292265       1.30995265      -0.05194326      -0.00589576       0.41146861
Si       1.30511729       6.87901287       6.74723457      -0.01491964      -0.41853069      -0.18092625
Si       1.35723919       9.52941455       4.11275996      -0.91293178      -0.74288966      -0.63469664
Si       1.24690034       9.52823808       9.40864821       0.77392468      -0.64750704       0.40292491
Si       2.67229866      -0.05904300       2.77691133       1.11993826       0.01041207      -1.35724149
Si       2.68334000       0.06803166       8.24015283      -0.52126726       1.54376187       0.48220526
Si       2.81301619       2.72135492       0.05360311      -0.74668378       0.09760008       0.02080443
Si       2.74997828       2.88856413       5.38117209       0.27279296      -0.54471297       0.47864270
Si       2.77617863       5.49925725       2.71233732       0.68910326       0.03955711      -0.15373693
Si       2.66411927       5.49066171       8.10234207       0.73610224       0.16301122      -0.18695061
Si       2.69946858       8.06591949      -0.14684683      -0.83846608       0.49967326       0.25266144
Si       2.71084631       8.17516839       5.37018542       0.64378347      -0.35285009       0.61722902
Si       4.01125319       1.51116207       3.98295475      -0.18136400      -1.05875126       0.51420705
Si       4.16087291       1.43831607       9.62589615      -0.70665274      -0.00640577      -1.65321354
Si       4.16959856       3.94519398       1.47705041      -0.44742674       1.74799092      -0.78372671
Si       4.12767058       4.06402274       6.87931074      -0.90380997       0.78169858      -0.80544155
Si       4.26489042       6.75767608       4.11457805      -1.34162682       0.55666528      -0.30773464
Si       4.11833849       6.77207129       9.46629286      -0.32604853      -0.76780670      -0.03325170
Si       4.08930000       9.25075168       1.28439979      -0.62705888       1.46160734       0.81992025
Si       3.86720522       9.56412677       6.95067008       0.72244873      -0.74993417      -1.82284675
Si       5.27957568       0.01294553       0.04156592       1.59047416      -0.86387138       1.08951523
Si       5.16558995       0.00523547       5.42530018       0.81055578       0.01522058       0.01810761
Si       5.55021436       2.71917355       2.78270852      -0.02059701       0.19886867       0.50261980
Si       5.46621722       2.69160934       8.06199701       0.17733655      -0.12664425       1.55980484
Si       5.46962830       5.37649686      -0.03568231      -0.17613189      -0.26798569       0.38086684
Si       5.46859227       5.39272144       5.49090021       0.63858119      -0.35371319       0.17196950
Si       5.55562361       8.06542497       2.67562052      -0.09244688       0.66833312       0.58120938
Si       5.30982017       8.19405536       8.11946450       0.79922196      -0.25383409      -0.10551076
Si       6.77778820       1.35278293       1.48234552       0.35801273      -1.06833816      -1.24705133
Si       6.69301211       1.25894849       6.79715037      -0.57748706       0.29425346      -1.29572988
Si       6.89285043       4.04517747       4.13592231      -0.10837042       0.78989170      -0.32697837
Si       6.86016437       4.05283291       9.42935703      -0.25499127      -0.45266218       0.58013380
Si       6.84693208       6.74815459       1.33356835      -0.30533394      -0.41352334      -0.72717032
Si       6.78200188       6.75941935       6.88250491      -0.55791533       0.70994181      -0.41658480
Si       6.75691533       9.57984931       4.11010878      -0.64668289      -1.02085582       0.81475155
Si       6.63149573       9.53207160       9.48330448       1.20558191       0.16003779       0.33767983
Si       8.15283774       0.02937029       2.88694384       0.50346498       0.67408653      -0.63194398
Si       8.08231742       0.04962359       8.04773479       0.49415124      -1.61236905       0.95934636
Si       8.16385193       2.57455153      -0.04150697      -0.60056818       0.62060171       0.34569574
Si       8.08062458       2.71547232       5.60645061       0.61087767      -0.14729135      -0.53089602
Si       8.19920155       5.40169930       2.57897138      -0.04688664      -0.51004566       1.24586047
Si       8.15877548       5.50154477       8.19000763       0.65827091      -0.29555812       0.18476787
Si       8.14574529       8.14292573       0.03207507      -0.06053274       0.60744935      -0.77781035
Si       8.14247693       8.11205019       5.53169724      -0.88214948       0.28265380      -1.14037006
Si       9.54091817       1.45659030       4.20167046      -0.22383847       0.20790935      -0.71785104
Si       9.48735549       1.29540149       9.44337054       0.20913337       0.50590619      -0.85705035
Si       9.51010201       3.91558329       1.35717627       0.00786445       0.12866045      -0.21344292
Si       9.49850356       4.17611946       6.77253728      -0.31646460      -0.21202977       0.29051812
Si       9.41668525       6.85065754       4.00832197      -0.25585311      -1.04742745       0.69735217
Si       9.58686213       6.79661855       9.51528176      -0.31971875      -0.62931931       1.23592922
Si       9.45465662       9.54274981       1.43569701      -0.10006759      -0.01036376      -0.41532463
Si       9.51996212       9.52124992       6.67742969      -0.27193913       0.60056226       0.86141092
64
Lattice="10.862 0.0 0.0 0.0 10.862 0.0 0.0 0.0 10.862" Properties=species:S:1:pos:R:3:forces:R:3 pbc="T T T"
Si       0.03662081       0.12361469      -0.02478655      -0.43214039      -0.64618944      -0.14731526
Si       0.07052609       0.03407541       5.49656696       0.04577433      -0.85565096      -0.94516009
Si      -0.06297823       2.64805610       2.74103100       0.06134407      -0.41278052       0.63325334
Si       0.01913404       2.69498322       8.05963831       0.42919060       0.59814322      -0.10205767
Si      -0.01855608       5.52073216       0.01960395      -0.52844981      -0.72482427      -0.11841775
Si       0.07343149       5.49609446       5.42674589      -0.15630847       0.04163644      -0.37013892
Si      -0.04760087       8.22176292       2.70524386      -0.00941878      -0.31585511       0.68328444
Si       0.05616814       8.20948235       8.16622900       0.13300698      -0.96816588      -0.46652678
Si       1.39115585       1.43122319       1.33808281      -0.81109656      -0.13911358       0.43292415
Si       1.48665249       1.25863315       6.73670373      -0.20807061       1.59856929       0.53607666
Si       1.33969939       4.03104896       4.03505388      -0.23720716      -0.48703062       0.92859256
Si       1.30307483       4.18980123       9.49443599      -0.14779679      -0.57362607      -0.61500295
Si       1.22989211       6.68154304       1.54781881       0.91900242       1.14688240      -1.02804915
Si       1.52230766       6.83737387       6.75871168      -1.69392708       0.32362532       0.15389037
Si       1.36852738       9.54860876       4.01262169      -0.30268781      -0.35890783       0.94402590
Si       1.32871653       9.44657974       9.56940113       0.59295097       0.17362667       0.78109590
Si       2.64946403       0.02596323       2.68073713       0.62357096       0.32999324      -0.12377581
Si       2.63970769      -0.10896822       8.14396588       0.98905681       0.24878941       1.03006647
Si       2.59628272       2.79272743      -0.02203912       0.82328473       0.01793653      -0.55839585
Si       2.81406090       2.66850076       5.37077238      -0.74503824      -0.29899996      -0.67396142
Si       2.65958449       5.40442028       2.79187625       0.80327889      -0.78243604      -0.89826225
Si       2.72090883       5.38474017       8.02045660      -0.09534697      -0.84004934       0.18576995
Si       2.73721553       7.98398687       0.05843169      -0.62656714       0.28612034      -0.14586720
Si       2.76114931       8.22919971       5.45281914       0.47633822      -0.14672435      -0.99056459
Si       4.14735492       1.37000569       3.91667678      -0.61566520       0.21460860       0.02621792
Si       4.01506453       1.33336424       9.59860648      -0.46830705       0.03129187      -0.56278105
Si       4.06677832       4.07060782       1.23248518      -0.57083103       0.09499235       1.14807010
Si       4.09133696       3.97449606       6.72739100       0.13300547       0.56391463       0.55544247
Si       4.04656444       6.68646994       4.07853807       0.09758426       1.40219384       0.27436931
Si       4.01459378       6.70342488       9.32890179       0.45008381       0.00790098       1.88183600
Si       3.99966981       9.56939410       1.32954136       0.31561534      -1.18832238       0.31105221
Si       4.12037709       9.52937904       6.84011681      -0.06139147       0.08003027      -0.38387088
Si       5.42773556       0.08855040       0.15092171      -0.26593386      -0.59033939      -0.92629635
Si       5.34007169       0.05701212       5.36224580       0.60275513      -0.08168403       0.68933904
Si       5.49619807       2.76150450       2.59733383      -0.12432107       0.73805186       0.65900290
Si       5.34189227       2.72133778       8.22546393       0.85782094      -0.02522123       0.24185420
Si       5.44863912       5.38798758      -0.01176398      -0.16980583       0.73022046      -0.84758793
Si       5.41322748       5.41719123       5.45461496       0.20210958      -0.52388091      -0.65976550
Si       5.40158992       8.12578292       2.70686621      -0.08022465       0.45736832       0.63083215
Si       5.38752418       8.14217996       8.22947827       0.36742187      -0.32781461      -1.02365342
Si       6.85045106       1.33258069       1.43314241       0.46708958       0.39213366      -0.48941183
Si       6.69567329       1.43945538       6.74552802      -0.08576242      -0.65469063       0.54097730
Si       6.86442763       4.18666776       4.01295719      -0.06153788      -0.87639864       0.16045673
Si       6.87775888       4.04428908       9.60495031      -0.67099895       0.47350063      -1.53428210
Si       6.73191457       6.70117011       1.42005929       0.50269217       1.08072069      -0.79166849
Si       6.72848000       6.74980584       6.76556362       0.58851829       0.72964672       1.17429739
Si       6.79301691       9.53905705       4.18240725      -0.05615726      -0.71278152      -0.66604108
Si       6.64182643       9.45851274       9.61016201       1.40596242       0.47543565       0.37146312
Si       8.18105104      -0.02809576       2.73778058      -0.67060913      -0.45125704       0.60858190
Si       8.01947651      -0.08786532       8.08186206       0.25953989       0.49335715       0.38171651
Si       8.14626970       2.59804758      -0.08999050       0.64950087       0.22922417       1.32931280
Si       8.15278250       2.65692818       5.42283765      -0.31292443       1.39673355       0.00546326
Si       8.25881538       5.48004716       2.60400485      -0.46423938      -0.51421865       0.82031598
Si       8.23326760       5.45017542       8.11183021      -1.15597403       0.15351729       0.86029573
Si       8.23696634       8.14829920       0.09241270      -1.65215556      -0.04037668      -0.34764016
Si       8.17120681       8.21647998       5.61476213      -0.25347513      -0.69674343      -1.38154684
Si       9.44039255       1.18605925       4.21359161       0.72934776       1.28638618      -0.95171378
Si       9.50295981       1.37352149       9.38228386      -0.23889845      -0.92397307      -0.19166268
Si       9.53437812       4.00040368       1.36029508      -0.27122660       0.03499546      -1.08073194
Si       9.51616628       4.16142034       6.75012779       0.55996948      -1.13232069      -0.49727187
Si       9.45665194       6.82330226       4.07179968       0.35763871       0.57067842       0.57674289
Si       9.51895271       6.88845588       9.48814820       0.04453471      -0.36479308      -0.07967741
Si       9.52322883       9.58108722       1.37245790       0.51185813       0.24989725      -0.67000292
Si       9.62612152       9.54332386       6.79948568      -0.75535225       0.00304709       0.71248226
64
Lattice="10.862 0.0 0.0 0.0 10.862 0.0 0.0 0.0 10.862" Properties=species:S:1:pos:R:3:forces:R:3 pbc="T T T"
Si       0.02460611       0.00477339       0.06322953       0.48889593       0.72645768      -0.99544970
Si       0.08659890       0.11997405       5.41607212      -0.38422978      -1.67155283      -0.33216889
Si       0.04933001       2.61912746       2.70911833      -0.32130247       0.90292205       0.98453734
Si      -0.14534127       2.75158063       8.21067888       2.01177267       0.16564288      -0.27979598
Si      -0.07748266       5.40859189      -0.08502296       0.82832830       0.99310167      -0.55992151
Si      -0.06978726       5.54562386       5.37574284      -0.20429234      -0.48192007      -0.04172889
Si       0.02273568       8.22983218       2.59449178      -0.76233356      -0.59409092       0.28230798
Si      -0.04167228       8.14219366       8.22154749       0.42789890      -0.13468680       0.07936586
Si       1.45058732       1.39071478       1.44323207       0.01161569      -0.43432769      -1.33208445
Si       1.31798334       1.32747011       6.85201224       0.06118378       0.90952901       1.07020071
Si       1.29407172       4.05708496       4.18735130       0.55695570      -0.18054908      -0.36326349
Si       1.46065920       4.11784244       9.51193582      -1.36602385       0.66331846      -1.39486466
Si       1.30834189       6.78425443       1.26502524       0.35083384       0.15975681      -0.06645647
Si       1.27308323       6.81836826       6.75943083       0.39996789       0.27146199       0.04479221
Si       1.31642735       9.54945676       3.97096624       0.29619793       0.08065662       0.58597138
Si       1.47592453       9.48819217       9.47644163      -1.44553294       0.61950248       0.14916643
Si       2.77492861      -0.01788534       2.70139568      -0.07715886       0.23022536       0.44188988
Si       2.77433466       0.06527745       8.19543995      -0.52439509      -0.22050712      -0.40461911
Si       2.69739404       2.87181048       0.03377114       0.00042372      -0.52265198       1.26093617
Si       2.70665814       2.69328472       5.61167481      -0.05247165       0.15339870      -1.09509836
Si       2.65400162       5.43941699       2.73967319      -0.49339938       0.43578957       0.33794112
Si       2.78517735       5.51071827       8.02081591      -0.24314526      -0.97623312       0.22261188
Si       2.75358488       8.16283395      -0.08631769       0.53207093      -0.76510066       1.19058996
Si       2.63329756       8.14665177       5.32900670       0.46619037       0.14902527       0.66479940
Si       4.04257418       1.36327831       4.10787285      -0.73066593       0.52856911      -0.04328844
Si       3.94028227       1.49575259       9.59417335       1.00546205      -0.93224240      -0.32046868
Si       4.04860108       4.20583419       1.39993595      -0.47513381      -1.07622988       0.42871285
Si       4.20667552       3.96040783       6.84572804      -0.28804746       0.66892570       0.05198459
Si       4.12607734       6.77059906       4.05562258      -0.83103918      -0.00244695       0.11242257
Si       4.12087637       6.73217625       9.46866013      -0.14624476       0.79104065       0.04190702
Si       4.10824343       9.50231808       1.41250619       0.44022910      -0.88980542      -0.83136977
Si       4.01763406       9.48910860       6.82052916       0.47898966      -0.42865211      -0.16352394
Si       5.35995859      -0.01715328      -0.09928105       0.04894856       0.18864199       0.52193046
Si       5.32942682      -0.00131342       5.39028251       0.74827626       0.11429997       1.32371016
Si       5.31182442       2.74372054       2.71995959       0.82052982      -0.03729157       0.02915035
Si       5.50081996       2.59554114       8.26400957       0.28427282       0.44210766      -0.32702429
Si       5.35239639       5.39174907       0.02952348       1.07087529       0.91069468      -0.20715826
Si       5.42015843       5.36093509       5.37842804       0.57054514       0.20246100       0.69435058
Si       5.53239697       8.07199016       2.74914276      -0.54602949       1.28147551       0.38115141
Si       5.54108246       8.15171494       8.23932557      -0.92998555      -0.87926039      -1.69097364
Si       6.67388838       1.37576965       1.30086027       0.14289164       0.35114338       0.05055893
Si       6.89773574       1.26856290       6.83733106      -1.76407760       0.51541217      -1.08315602
Si       6.81991848       3.97819945       4.12034111       0.47655814      -0.17649876      -0.68689482
Si       6.77454456       4.07561637       9.60193945      -0.39961381      -0.16489845      -0.52795092
Si       6.77859927       6.74554834       1.40872262       0.43857824      -0.76268704      -0.74648243
Si       6.87635624       6.72114708       6.77090360      -1.21449267       0.57239150      -0.26182821
Si       6.77317076       9.61368237       4.11829362       0.28511817      -1.22413777      -0.20415606
Si       6.81546551       9.50843241       9.46655972       0.53187664       0.50982573       0.82789025
Si       8.06913202       0.11615625       2.73289374      -0.37247651      -0.31360649      -0.20135905
Si       8.17085903      -0.07814460       8.03203246       1.02866785      -0.44718497       1.38243373
Si       8.14394884       2.71239008      -0.04615044      -0.08173701       0.15541104       1.39527244
Si       8.26773699       2.55345625       5.44805422      -0.91426011       1.71574492       0.63304446
Si       8.24037191       5.27653042       2.59020322      -1.05390705       0.01886264       0.58785392
Si       8.06572200       5.33721747       8.13890694       0.52618065       0.26732161       0.21123310
Si       8.10698851       8.16415933       0.09306280      -0.15671201       0.82107515       0.18252115
Si       8.18378022       8.12385524       5.40685640       0.08149069       0.38015719      -0.23645688
Si       9.50962559       1.29133678       4.07744500       0.54715610       0.30695671      -0.73544369
Si       9.42551753       1.40294311       9.49462681       0.33859137      -1.65151136      -0.00637843
Si       9.67950032       4.02324582       1.28803551      -0.99880978      -1.07803555       0.16297170
Si       9.54559393       4.11358558       6.78070963      -0.54961837      -0.16200305      -0.41182453
Si       9.42605422       6.76858120       3.88890741       0.64471293       0.79514830       0.42958229
Si       9.30159026       6.83147048       9.51830468       0.98597629      -0.64772080      -0.30744111
Si       9.46598070       9.68054941       1.41605930      -0.23844147      -1.15813544      -0.33699747
Si       9.63944747       9.48786001       6.75696889      -0.36268528       0.01551349      -0.56816411
64
Lattice="10.862 0.0 0.0 0.0 10.862 0.0 0.0 0.0 10.862" Properties=species:S:1:pos:R:3:forces:R:3 pbc="T T T"
Si      -0.02160191       0.05061474      -0.18779293       0.57529352       0.11414731       0.60695573
Si       0.11233924       0.11857612       5.43166290      -0.23318124      -0.66708770       0.09654429
Si       0.07970166       2.68597069       2.69278898      -0.45133768       0.73520847      -0.27860167
Si       0.01206455       2.68408153       8.08844328      -0.52979968       0.24702422      -0.13119729
Si      -0.05757623       5.33707359       0.01898582       0.13819173       0.92067576      -0.09630065
Si      -0.01721355       5.49217717       5.38061767       0.18978191      -0.46441097       0.70125484
Si      -0.09103573       8.17942763       2.58365672       1.27732516      -0.70341975       0.96283962
Si      -0.03208777       8.00511740       8.10145607       0.33329673       1.20502429      -0.15315018
Si       1.38594599       1.36656212       1.29921607      -0.12236271      -0.82957786       0.26016174
Si       1.51691264       1.46258567       6.82590925      -0.82637601      -0.82833325      -0.24279377
Si       1.34731695       4.04831379       4.15911641      -0.66886207       0.67595273      -1.16673208
Si       1.28856384       3.97222060       9.51353351      -0.25507983      -0.02183534       0.91694371
Si       1.40343233       6.80360887       1.31822004      -0.82008602      -0.08145465      -0.35659052
Si       1.38151366       6.77485545       6.78829639       0.56093990      -0.06317599      -0.52965960
Si       1.34420391       9.48071490       4.04247406      -0.33807166       0.58581836      -0.35301352
Si       1.34454364       9.41714500       9.44911566      -0.77269376      -0.16071911       0.06241817
Si       2.76321861       0.06936106       2.78466563       0.10530573      -0.11520578       0.01490964
Si       2.63394453       0.00899961       8.26971569       1.17667204       0.03413601      -1.23140694
Si       2.72428418       2.81353368       0.14102647       0.16586411      -0.31883276      -1.18863674
Si       2.71816642       2.83955480       5.44220686       1.74458677      -0.94644642       0.16922678
Si       2.63297354       5.46187098       2.76187085       0.62550565       0.06300903       0.51477009
Si       2.57027647       5.34813566       8.25804092       1.49160896       0.80519815      -0.50033538
Si       2.76435544       8.20925052      -0.02825965      -0.26654817      -0.20174676       0.70671909
Si       2.75384820       8.28600905       5.43651244      -0.11024176      -0.48090588       0.61527440
Si       4.27826436       1.43647432       4.14091192      -1.96561475      -1.06255444       0.84244215
Si       4.00795340       1.38245390       9.54046953      -0.45471422       0.78170101       0.09895391
Si       4.07941735       4.10125289       1.48696100       0.09265465       0.31609291       0.03606328
Si       4.09905866       4.06300735       6.88264244      -1.58194294       0.37604408       0.21070328
Si       4.04571659       6.84977064       4.12786490      -0.10389338      -0.76630918       0.13159878
Si       4.07962632       6.76692652       9.61169319      -0.83168793      -0.48758655      -0.77176268
Si       4.08333278       9.49372451       1.42535085      -0.10746360       0.34991168      -0.32059647
Si       4.18491322       9.62356692       6.79312074      -0.89787335      -0.46496603       0.59837977
Si       5.32321237       0.00032380      -0.09412978       0.48228979      -0.58670804       1.03107299
Si       5.63326206      -0.04191396       5.43119998      -0.34468228       0.32272089      -0.55523955
Si       5.44030484       2.61001413       2.67605571       1.14580063       1.23251546      -0.21106175
Si       5.37609204       2.67679196       8.12145627       0.72827116      -0.60291691       0.53995011
Si       5.42733180       5.42805434       0.07085143      -0.55472735       0.26715628       0.51483476
Si       5.33131899       5.41126439       5.56927046       0.26226564      -0.04056830      -1.77781541
Si       5.42784415       8.02548601       2.67856116       0.53816969       1.02605997       0.26406492
Si       5.34950470       8.03039360       8.14401509       0.76963842       0.77872313      -0.17607807
Si       6.75729147       1.23553991       1.29494016       0.26702482       0.44500753      -0.06534437
Si       6.87129154       1.31809764       6.82579875      -0.02202018       0.24323121       0.21100722
Si       6.75742234       4.01197853       4.18442389      -0.72762764       0.63814790      -1.01218395
Si       6.61679900       4.11637932       9.54801830       1.08845958      -0.83034051      -0.88244745
Si       6.84265167       6.77604461       1.32020234      -0.12077282       0.28360241      -0.09807053
Si       6.73984656       6.67919968       6.77215024       0.93424681       1.15128607       0.45805565
Si       6.92599899       9.53839177       3.91136913      -0.66707093      -1.07386698       0.66905410
Si       6.73136094       9.52963394       9.49712526      -0.51409922      -0.72248554      -0.49279062
Si       8.27754645       0.06005188       2.67248334      -0.05744521      -0.15287784      -0.59721989
Si       8.17007119      -0.11807473       8.15454016       0.10668050       0.16261192      -0.56044208
Si       8.03829686       2.71520588      -0.03999326       0.10111022      -0.10960278       0.07782017
Si       8.15070706       2.72741659       5.45703906       0.77924147      -0.28794547       0.16430728
Si       8.07524714       5.41103097       2.69770541       0.20739768      -0.42319364       0.91847715
Si       8.12323282       5.39677525       8.19058898      -0.46076070       0.42545908       0.40367054
Si       8.11276892       8.25652891      -0.01040548       0.29007958      -0.52632282      -0.02206977
Si       8.16191827       8.10507114       5.38774156      -0.29799636       0.01994088      -0.02596305
Si       9.58216282       1.41768228       4.03223998      -0.33893939      -0.02280067       0.81814474
Si       9.41027591       1.39238391       9.39185784       0.20275572       0.07464207       0.34616539
Si       9.40559719       4.03693093       1.37308238       0.50814495      -0.40241349       0.07509011
Si       9.48456926       4.14427273       6.81746035       0.46006260      -0.41769968      -0.43884429
Si       9.51680319       6.75325179       4.01032612      -0.50467802       0.51361740      -0.49626949
Si       9.48764982       6.84021005       9.50848183      -0.55376733      -0.91148934       0.67538590
Si       9.59529473       9.55579477       1.24509203      -0.84113317       0.68055926      -0.11593724
Si       9.57595124       9.46285056       6.71595797      -0.00511474       0.30057493       0.13529466
64
Lattice="10.862 0.0 0.0 0.0 10.862 0.0 0.0 0.0 10.862" Properties=species:S:1:pos:R:3:forces:R:3 pbc="T T T"
Si      -0.05134263       0.20783329      -0.00757395       0.52078798      -2.26320191       0.57841398
Si       0.06065980      -0.07638440       5.43500180      -0.79645819      -0.02505849      -0.33020800
Si       0.12766326       2.76871305       2.72489205      -0.96374603       0.92954088       0.26481651
Si      -0.01580541       2.72753825       8.07716577       0.40159545      -0.15193159       0.91455018
Si      -0.11796858       5.38555251      -0.03797603      -0.18539213       0.02469080       0.68847774
Si      -0.00107402       5.38923606       5.50290026      -0.26382275       0.93133539      -0.56259539
Si       0.01955400       8.11442212       2.71055225      -0.03888235      -0.82230252       0.12053132
Si       0.03309945       8.24911254       8.25165492      -0.43193763      -0.57682217      -0.95428826
Si       1.28949614       1.41493580       1.35070385       2.08106838       0.02461899      -0.18791767
Si       1.33614528       1.30800475       6.79400462      -0.06778492       0.55089055      -0.53689660
Si       1.38697074       4.12283914       4.18111574       0.82384887      -0.00928869      -0.98686998
Si       1.33577703       4.17523637       9.48565111      -1.00159696      -0.95905301      -0.27350672
Si       1.32359293       6.60356724       1.37693045      -0.13084524       0.43467179       0.27358388
Si       1.36594950       6.77787117       6.80046487      -0.02637167       0.51940951       0.79800226
Si       1.41447637       9.44212814       4.03818106      -0.44185785      -0.23045803       0.80447061
Si       1.34609006       9.66434352       9.50657478       0.50270155      -0.16814125       0.44802640
Si       2.70755477      -0.09772130       2.71961430       0.12774981       0.77564846      -1.00875709
Si       2.74455204       0.02524286       8.02897890       0.70238385       0.27304020       1.40412821
Si       2.72715201       2.89550397      -0.08911577      -0.07025437      -0.56976347       1.78829535
Si       2.70747460       2.67997147       5.44696237       0.38630920       0.13658806       0.30574677
Si       2.89581650       5.47961101       2.77267204      -1.14803056      -0.60194955      -0.19553603
Si       2.71533685       5.43012331       8.22497851      -0.13828355       0.09961388      -1.54872585
Si       2.54550166       8.00429241      -0.04191644       0.27828719       0.91772256       0.16911672
Si       2.76550852       8.19756237       5.53412262      -0.45003842      -0.23916586      -0.61924799
Si       4.06025632       1.34977091       4.01286892      -0.24745796      -0.04080681       0.00215428
Si       4.09784864       1.55101615       9.49735805      -1.31808185      -1.98938347       0.32292719
Si       4.25150604       4.13052010       1.38274346      -0.71530332      -0.56766534      -0.27435606
Si       4.09308869       4.11388965       6.82663295      -0.52826834      -0.82973020       0.23061487
Si       4.09302535       6.89988901       4.10821369       0.19610773      -0.11301477       0.14878794
Si       4.00462021       6.69571969       9.56414905       0.50675296       1.13919183      -0.45575019
Si       3.99534120       9.35948897       1.28946243       0.51462530       0.52768365       0.04410672
Si       4.16965958       9.56025065       6.74929703      -0.17246296      -0.11378026       0.49905225
Si       5.38834885       0.07028627      -0.04912569      -1.20314635      -0.84767104       0.34404146
Si       5.44725706       0.04435627       5.36279911       0.64598950       0.03966421       0.12767789
Si       5.51114071       2.59823179       2.66450531       0.31652269       0.39472245       0.07098170
Si       5.44100552       2.75786005       8.26714552       0.97366383       0.94490055      -2.02667511
Si       5.48525114       5.36712048      -0.16270548       0.10606557       0.46276366       1.38938876
Si       5.34133473       5.37473280       5.36314562       0.64746733       0.24263781       0.15101631
Si       5.51386444       8.06142741       2.67360853      -0.89006071       1.08345728       0.06719160
Si       5.37856367       8.08421754       8.13769396      -0.48600356       0.04862144       0.19209162
Si       6.86027137       1.24323965       1.23473863      -0.36035795       0.24485389       1.18672342
Si       6.80142813       1.41864475       6.84274523      -0.60778147      -0.31681287      -0.26324783
Si       6.82799442       3.95182611       4.18726409      -0.36324358      -0.01585391      -0.51997540
Si       6.89405351       4.11984114       9.42230654       0.50128674      -0.64258955       0.46555604
Si       6.76409574       6.70855229       1.35551523      -0.01347290      -0.91028615      -0.24095055
Si       6.68663123       6.83377690       6.66821820      -0.00094820      -0.95833449       0.78431245
Si       6.82722547       9.46685765       4.03637090      -0.79515820       1.36682212      -0.80944741
Si       6.61496974       9.46522763       9.54503215       1.13605931       0.06889817      -0.53614356
Si       8.19037435       0.09068436       2.78534647       0.57537801      -0.85872678      -0.53265868
Si       8.06406239      -0.03279227       8.11853515       0.06733826      -0.82896373       0.41971723
Si       8.17268808       2.62244752      -0.00686237       0.22334747       0.72156222      -0.88205344
Si       8.27115537       2.70493127       5.57931472      -0.47789031      -0.19996600      -0.94158976
Si       8.08075862       5.37289047       2.77750581      -0.21644462      -0.33928265      -0.29018028
Si       8.15217887       5.60793903       8.16337911       0.11642721      -0.19307048      -0.83609486
Si       8.01464206       8.10656686       0.06615858       0.73309892       1.26998420       0.08096089
Si       8.00619327       8.13152751       5.35042298       1.79774726      -0.38426758       0.70670698
Si       9.63168503       1.45398797       4.07755322      -0.23306566      -0.63495291       0.58908213
Si       9.51821515       1.26240412       9.42346343      -0.99144733       1.48498383      -0.77054445
Si       9.40188522       4.02505434       1.40554984       0.86380620      -0.16176517      -0.12483848
Si       9.50366267       4.12822553       6.83666509      -0.21032117       0.51520895       0.72979093
Si       9.42738362       6.71260500       4.06764019       0.76075714       0.66254565       0.31452801
Si       9.47142810       6.91768138       9.58980674       0.24948065      -0.20522358      -0.38083030
Si       9.58015820       9.48167943       1.35688823      -0.91488379       0.73845274      -0.13592983
Si       9.43856609       9.43388827       6.77810925       0.14444845       0.19455856      -0.19975483
64
Lattice="10.862 0.0 0.0 0.0 10.862 0.0 0.0 0.0 10.862" Properties=species:S:1:pos:R:3:forces:R:3 pbc="T T T"
Si       0.04235529       0.03948456       0.05401566      -0.96195190      -0.34298590      -0.16390540
Si      -0.02021637       0.05445837       5.46522062       1.05561208      -0.74607906       0.24418455
Si       0.03976761       2.67662797       2.84159748      -0.45533460       0.58368246      -1.34755602
Si       0.02309382       2.71758940       8.11574533      -1.55137394      -1.69605085      -1.83318899
Si      -0.01640132       5.52016964      -0.12365453       0.75079890      -1.42028855       0.65130006
Si      -0.02721855       5.43367531       5.46754911      -0.71953284       0.88225107      -1.05001710
Si       0.06111341       8.17794387       2.57240434      -0.20355720      -0.68949613       0.91076350
Si       0.06199290       8.25144627       8.07898540       0.02988064      -0.82523359       0.78776140
Si       1.37461609       1.40080206       1.36495258      -0.44884746      -0.09444356       0.49762100
Si       1.51582656       1.38078265       6.72001353      -1.24662510      -0.62774109       1.29787907
Si       1.29235021       4.14562435       4.06902838       0.55862244      -0.39479996       0.72978473
Si       1.24893212       4.01006968       9.32823772       1.26804395       1.31000013       2.23905478
Si       1.40418101       6.72790859       1.28651015      -0.63714982       0.63919460      -0.16896779
Si       1.33780542       6.85289305       6.67010656       0.45248528       0.04050796       0.66823716
Si       1.33632393       9.58496900       3.93644721       0.04007144       0.24728028       0.47536007
Si       1.38841460       9.51036268       9.58994490       0.37267054       0.07331600      -0.54976199
Si       2.80381772       0.06944033       2.61529109      -0.72922959      -1.33225380      -0.29643950
Si       2.84077979      -0.02182369       8.16428078      -0.72021278      -0.19653404      -0.22112325
Si       2.61878053       2.66125949      -0.03990806       0.47619545       1.40343875      -0.04017994
Si       2.71730677       2.76825066       5.43979170       0.48293528       0.56671297      -1.00525661
Si       2.62918792       5.43603867       2.69941709       0.31721695       0.00807791       0.55307492
Si       2.64164544       5.37732651       8.07907579       0.22503559       0.35758675      -0.43869908
Si       2.77701431       8.13022166       0.07488731      -0.43054402      -0.61468991      -1.30403759
Si       2.68156101       8.26441973       5.35545969       0.26215339      -0.63138135      -0.35799481
Si       3.97583837       1.33580994       4.03791864       1.43973474       0.97272125       0.40837726
Si       4.06587666       1.25550185       9.66942483      -0.26565093       0.79751797      -0.95353777
Si       3.98957407       4.10492533       1.44428005       0.20010797      -0.75293627      -1.50280261
Si       4.13519945       3.99050113       6.84607169      -0.57092516       0.81264161      -0.32183283
Si       4.02212974       6.70920625       4.08188961       0.04582523       0.57506845       0.47551929
Si       4.00723567       6.68672093       9.47507567       0.18396323       0.93021888      -0.09096802
Si       4.13435658       9.39432830       1.33527087       0.84727373       0.81720625       1.38018257
Si       4.13963930       9.52363583       6.68848626      -0.30753280      -0.71464401       1.30033706
Si       5.46099260       0.00693831       0.05764147       1.08923521      -0.80511246       0.43225864
Si       5.42380827       0.02117264       5.41726870      -0.06501074       0.94080543      -0.19200812
Si       5.43068794       2.66848816       2.58078339      -0.08357888      -0.50984218       0.74568477
Si       5.33942239       2.66547058       8.26293925       0.50502968      -0.85172754       0.24270089
Si       5.37036809       5.38410125      -0.03326000      -0.36489937      -1.00947211      -0.14887437
Si       5.42984295       5.38824936       5.46619605       0.07519568      -0.06838422      -0.18912154
Si       5.50936628       8.05419742       2.83515707      -0.29400859       0.23505330      -0.94007520
Si       5.44651690       8.20319726       8.25109727      -0.36199184      -0.79197258      -1.03971895
Si       6.98100262       1.35873734       1.29444876      -1.01604919       0.35487506       0.17027599
Si       6.74008247       1.28849531       6.93224561      -0.35454674       0.68684232      -0.80793724
Si       6.72123942       3.92974582       4.07534126      -0.16870691       1.60104198      -0.67864247
Si       6.79456973       3.92921749       9.54759459      -0.40063886       0.92176537       0.18026967
Si       6.71123072       6.61969243       1.30238595       0.33968097       1.77127259       0.18089349
Si       6.80385319       6.82658051       6.76953145      -0.34978458       0.38512055       0.21320669
Si       6.80012392       9.62770651       4.08554903      -0.42564295      -0.72997024      -0.24130003
Si       6.85887768       9.46055108       9.60712597      -0.32453474       0.16763784      -0.05723466
Si       8.17751799       0.01474997       2.75342946       0.25268929       0.22359679      -0.09740501
Si       8.12674941      -0.04078681       8.17927856      -0.28630129       0.35657288       1.01222878
Si       8.30731389       2.85001685       0.06337934      -0.41617415      -1.03515827      -0.54047057
Si       8.00626169       2.72940879       5.48678486       1.06589316      -1.37164566      -0.07487119
Si       8.07233349       5.57521958       2.77021698       0.18195788      -2.00956933       0.22193614
Si       8.02006078       5.37183206       8.16468539       1.10136543       0.16036638      -0.49030451
Si       8.20646335       7.99504916      -0.01737162      -0.22755849       0.52499868       0.73848517
Si       8.13764803       8.32656101       5.42439936       0.45042245      -0.92825066       0.51703840
Si       9.56022578       1.31588526       4.11149089      -1.46477349       0.93645300       0.38652347
Si       9.47158188       1.34787809       9.50619182       0.80341441       0.39088251       0.12936697
Si       9.53997359       4.20685978       1.40675557       0.64725208       0.26922906       0.87592051
Si       9.46347298       4.06764834       6.68611703      -0.28752348      -0.11857549       1.43725420
Si       9.45628231       6.90592576       4.02489686       0.90152255       0.26956502       0.61172352
Si       9.56143929       6.76936576       9.39559632      -0.82095207       0.56686913      -0.83526724
Si       9.46534928       9.50418126       1.42462149       0.15165802      -0.18896795      -1.38173343
Si       9.49846101       9.59309324       6.89966448       0.38720090      -0.28216443      -1.35397089
64
Lattice="10.862 0.0 0.0 0.0 10.862 0.0 0.0 0.0 10.862" Properties=species:S:1:pos:R:3:forces:R:3 pbc="T T T"
Si      -0.16541000      -0.07057388       0.01284387       0.41985783       0.39440939       0.29397678
Si       0.09139277      -0.01336082       5.27004514      -0.04508589       0.61330689       0.02120481
Si       0.03561966       2.74241581       2.73140760      -0.44609882      -0.48152383       0.15838605
Si       0.07953840       2.81480248       8.08285877      -0.00886706      -0.33287833       0.06480357
Si      -0.14919077       5.46652832      -0.05088044       0.72563387      -0.59730725      -0.32257368
Si       0.11784099       5.54733125       5.43256292      -0.88100055      -0.90992803      -0.82632245
Si      -0.07913845       8.08638991       2.70172700       1.17453016       0.42938839       0.20251121
Si       0.04226327       8.23427357       8.06867581      -0.49070192      -0.27217294       1.37660436
Si       1.28494591       1.22878893       1.38894706      -0.12031990       0.41314348      -0.26283762
Si       1.33603717       1.38386627       6.68894670       0.29823921      -0.03194009       0.26950680
Si       1.46028195       4.01371058       4.11103727      -0.56725935       1.06903429      -0.37081785
Si       1.37613938       4.05688355       9.56499811      -0.40633037       0.91480136      -0.39819907
Si       1.20697762       6.75016600       1.29828630       0.97813272       0.23894776       0.20175456
Si       1.35079963       6.83061019       6.85829114       1.30227800      -0.19765139      -0.25415922
Si       1.43651528       9.36718035       4.08422974      -0.66217722       0.59831639      -1.11893417
Si       1.31940857       9.48083957       9.64446265      -0.20647803       0.29581039      -0.98694176
Si       2.73928530      -0.02042296       2.73723246      -0.16857353      -0.65600864      -0.33575764
Si       2.57527169      -0.01092259       8.15907420       0.59333649      -0.13047424      -0.24088984
Si       2.60834050       2.59453750      -0.06374765       0.04199790      -0.06776411       1.30339803
Si       2.81877761       2.70772750       5.40471101       0.05762183      -0.49208038       0.55088382
Si       2.69577233       5.41545759       2.61496697      -0.70341358      -0.54638821      -0.07801072
Si       2.77496502       5.46934852       8.24436455      -0.50606413       0.14286982      -0.24498709
Si       2.70219828       8.16921927       0.06451321       0.06298406      -0.32663671       0.47933875
Si       2.76296815       8.06846467       5.35388512       0.51688623      -0.02123404       1.56374244
Si       4.11140177       1.26767308       4.06762024       0.19619530       0.23283990       0.50735263
Si       3.99390951       1.36337468       9.47769695       0.41055625      -0.19572973      -0.81039467
Si       3.97402573       3.91265329       1.34331071       0.40416970       0.79208071      -0.51174493
Si       4.07824358       4.11303619       6.81682872      -1.32179649       0.01558881       0.02477915
Si       4.03327807       6.70512746       3.97484331       0.19293263      -0.46893126       0.70035191
Si       4.10104117       6.90699158       9.55468641       0.41837118      -0.31834857      -0.32819737
Si       4.16294644       9.53150241       1.35451313      -0.50189938      -0.06337231       0.26455641
Si       4.11320881       9.55182917       6.79058513      -0.90361791       0.40662105      -0.77474193
Si       5.42845720       0.07514438      -0.04064160       0.51003246       0.14668721       0.44946689
Si       5.57901367       0.03814722       5.43926024      -1.09702458      -0.34884101       0.30284819
Si       5.37221778       2.71364518       2.78436596       0.59831476       0.41405263      -0.24872295
Si       5.34651437       2.85140350       8.15082592       0.72899568      -1.08186419       1.11628439
Si       5.41187300       5.40512641       0.01350518      -0.35025590      -0.03506339       0.42165870
Si       5.35422697       5.35094946       5.46934180       0.98046584       1.79985439      -0.49723142
Si       5.39377159       8.08971315       2.77883479       0.74280123       0.73368408      -0.39785076
Si       5.46186971       8.30533317       8.12779422       0.12900693      -0.66296900       0.97063843
Si       6.80688183       1.43438163       1.42665258      -0.59753169      -0.57369799      -0.47663301
Si       6.70829257       1.44669892       6.86971189       1.20949945      -0.37526559       0.18947662
Si       6.77658152       4.15274898       4.09659396       0.43082699      -1.23835051       0.24540568
Si       6.81923204       4.05776744       9.57299049      -0.09011261       0.39319560      -0.64767063
Si       6.77313086       6.84425254       1.33104057      -0.29143275      -0.99597318       0.51956454
Si       6.75672906       6.85239547       6.85289564       0.30957439      -0.35457937      -0.83971767
Si       6.81695763       9.38887884       4.20093173      -0.44757013       0.54220312      -0.96155412
Si       6.87473130       9.56675964       9.55396170      -0.26188116      -0.13251653      -0.28136023
Si       8.03021611      -0.06465715       2.73646907       0.34829872      -0.13893115       0.10636388
Si       8.24760793       0.00200706       8.17868604      -0.41038844       0.51279701      -0.82724885
Si       8.17935492       2.67433171      -0.00004943       0.12198150       0.23777100       0.26656714
Si       8.22998273       2.61306886       5.46224315      -1.20976459       1.76989742       0.70348348
Si       8.15507653       5.46912452       2.73551290      -1.23333730      -0.83751750      -1.27709344
Si       8.17287096       5.42512201       8.11517842      -1.12647351      -0.61212715      -0.23376694
Si       8.13214316       8.00573034      -0.09535466      -0.19683547       1.54225879       1.07627447
Si       8.27455136       8.21064512       5.47113206      -0.26018040      -1.33243651       0.28932663
Si       9.41452488       1.33060718       4.07488309       1.21296636      -0.57841586      -1.23030313
Si       9.57924658       1.45594280       9.43349080      -0.04992032      -0.46577462       0.29422612
Si       9.50282958       4.08552342       1.36556574      -0.18267820      -0.17345781       0.19979909
Si       9.58298734       4.14639155       6.76719883      -0.25724465      -0.15725852      -0.68678831
Si       9.43827499       6.76952092       3.95422704       1.06944402       0.45503918       2.29186105
Si       9.41480651       6.77338179       9.41214395       1.50831118       0.50924521      -0.70628309
Si       9.43613669       9.39716438       1.42877717      -0.79630243       0.48140998      -1.00221318
Si       9.67525372       9.60330038       6.68430688      -0.89562462       0.11015570       0.75355122
64
Lattice="10.862 0.0 0.0 0.0 10.862 0.0 0.0 0.0 10.862" Properties=species:S:1:pos:R:3:forces:R:3 pbc="T T T"
Si       0.16432577       0.05675288       0.07770195      -0.91210524      -0.82962379      -1.18075273
Si      -0.02959492      -0.09607027       5.44830960       0.34537097       0.07087531       0.26834585
Si      -0.17444358       2.54313015       2.83989422       1.23610270       1.11654636      -0.54912556
Si       0.05250073       2.66700747       8.01219810      -0.81063468      -0.13963310      -0.21236815
Si      -0.00380690       5.32465872       0.15990471       0.51252480      -0.08227632      -0.36019845
Si      -0.05646469       5.42798512       5.43333055       0.17331697      -0.15450328       0.07859632
Si      -0.01711036       8.11223117       2.67949267      -0.42000232       0.34463196      -0.49255179
Si       0.10002762       8.14243565       8.27819347      -0.58471014      -0.41959660      -0.86245049
Si       1.37146437       1.43437057       1.41175836       0.45864666       0.51517558      -0.07780749
Si       1.43551238       1.35303567       6.67633842      -0.25651475      -0.48749862       0.05404983
Si       1.24087476       4.11827309       3.98764887      -0.04946772      -0.33136588       0.13064407
Si       1.23587303       4.10988033       9.32153305       0.76137842       0.59938962       1.07898460
Si       1.38916995       6.77933017       1.42397224       0.14281783      -0.48762212      -0.35151697
Si       1.32413201       6.81783157       6.75825712       0.41285421       0.27946238      -0.44368536
Si       1.30788214       9.47619498       3.94511455       0.42823347       0.95164676       0.25921082
Si       1.48975622       9.52166808       9.40072960      -0.15633861       1.05526186       1.29980945
Si       2.78162037       0.07903637       2.68605531      -0.61286640      -0.95631351      -0.10229739
Si       2.82581308       0.00551508       8.05356256       0.10841812       0.44058594      -0.26979890
Si       2.64778675       2.73982829      -0.19179065       0.24924509       0.10542119       0.64051643
Si       2.65060171       2.83311080       5.32756411       0.18229959      -0.29248097       0.68877430
Si       2.77629442       5.37066433       2.75144997      -0.55837474       1.09906317       0.09504217
Si       2.73485032       5.56036166       8.13063029      -0.59144101      -0.85080348      -0.07684033
Si       2.67485898       8.22440647       0.07234699      -0.37168585      -0.71350508      -0.31005309
Si       2.70445464       8.14118098       5.23696331      -0.18324607      -0.09632602       1.06871220
Si       3.99633388       1.31843488       4.16986347       0.84427312       0.83499372      -0.45226212
Si       4.20482552       1.40073168       9.39249217      -0.53891616      -0.15565602       0.50135233
Si       3.99117726       4.08828292       1.35192863      -0.06684660      -1.33856728      -0.87211484
Si       4.02678814       4.06279314       6.83794094       0.12847877       0.32945443      -0.55019631
Si       4.17067041       6.83181238       4.00118739      -0.04011396       0.10983923      -0.38657123
Si       3.97326625       6.83175898       9.59733841       0.36769049       0.37047280      -0.03411030
Si       4.09157647       9.47162998       1.33245565       0.62113155       0.73089342       0.79143558
Si       4.09587730       9.44222255       6.69970667      -0.24139299      -0.03323467      -0.29525885
Si       5.42854954      -0.07047656      -0.06231247       0.30161769       1.03295812       0.55640740
Si       5.47182322       0.00280152       5.41258024      -0.13844303      -0.23080165       0.41449063
Si       5.34069527       2.67272142       2.67101535       0.21345676       0.05087184       0.41835792
Si       5.57406798       2.81379795       8.10769422      -0.64058044      -0.38700493       0.02610466
Si       5.29439015       5.44976489       0.04400262       0.96826817      -0.04413038      -0.24295465
Si       5.34863648       5.45237924       5.42612718       0.33930536      -0.01791001       0.90737119
Si       5.64636380       8.28654310       2.72289726      -1.45087143      -0.74580554      -0.20322409
Si       5.34239531       8.18689490       8.23329750       0.00812854      -0.03712161      -0.11011855
Si       6.83158420       1.36395222       1.37600773      -0.34764368      -0.35255216      -0.61721536
Si       6.81165544       1.26292298       6.87137150      -0.38304298       0.01228508       0.07355590
Si       6.68352602       4.11747530       4.05259568      -0.18697608      -0.61995528       0.09954626
Si       6.80991037       4.17321570       9.51575622      -0.01661431       0.11703404       0.48848835
Si       6.75407027       6.76878250       1.35833860      -0.05304631       0.11455645      -0.24478233
Si       6.66432059       6.79989214       6.94906455       0.85873503      -0.63732503      -0.90491512
Si       6.92763145       9.55207280       4.13335649       0.21437302       0.04727440       0.21900266
Si       6.81587287       9.53058091       9.45438039      -0.34555886      -0.81690680       0.55034223
Si       8.23068823      -0.07371301       2.64294996      -0.43784254       1.01973639       0.76878545
Si       8.20800389      -0.00654470       8.25560401       0.64302626       0.59302835      -0.30563985
Si       8.17486490       2.80333548      -0.00177735      -0.29792989      -0.34577833       0.30227256
Si       7.93386300       2.58931320       5.40305293       0.52082469       1.09171654      -0.24450503
Si       8.06223186       5.54906949       2.83378772       0.69141662      -0.81066066      -0.44075622
Si       8.23433511       5.38158982       8.11615449       0.11392018       0.57782384       0.03543247
Si       8.08116508       8.01549938      -0.10002783       0.75988806       0.79370430       0.30649951
Si       8.15646134       8.11594467       5.57870288      -0.29339955      -0.18042224      -0.22740869
Si       9.40736739       1.29346053       4.21229216      -0.18185162      -1.01885691      -0.34610099
Si       9.59955180       1.44427704       9.55149267       0.07209463      -0.42697671       0.11458696
Si       9.45110008       4.03300184       1.54121939      -0.41663950       0.43529489      -0.20911647
Si       9.44556848       3.93072146       6.63676485      -0.17451787       0.22326851       0.48338982
Si       9.55022677       6.84260034       4.09287316      -0.82319941       0.04484477       0.58029863
Si       9.66359034       6.71388248       9.59210448      -0.95767365      -0.21197194      -0.37277129
Si       9.49956969       9.50441357       1.28210608       0.48776374      -0.98838546      -0.81890656
Si       9.51502553       9.44534168       6.92845453       0.37488684       0.13346112      -0.13203102
64
Lattice="10.862 0.0 0.0 0.0 10.862 0.0 0.0 0.0 10.862" Properties=species:S:1:pos:R:3:forces:R:3 pbc="T T T"
Si       0.00991583      -0.00529325       0.04737755      -0.16055809       0.42569600      -0.80417892
Si       0.08668235      -0.00617873       5.37001413      -0.60186884       0.63474704       0.29434026
Si      -0.00617767       2.81411371       2.70617484      -0.55374316      -0.42475577       0.26586826
Si      -0.05765910       2.77819469       8.15952887      -0.36689158      -1.12565176      -0.17733783
Si       0.06681804       5.38636411       0.03478732       0.40350174      -0.00313523       0.61067604
Si      -0.00789612       5.52779985       5.39397569      -0.58436353       0.14118672       0.16721596
Si       0.00616724       8.12901784       2.70886941      -0.67639643       0.41759365      -0.29119443
Si       0.00532236       8.10464393       8.31868246      -0.03472542       0.39797212      -0.35833518
Si       1.30609077       1.29896312       1.47084374      -0.16435592       1.08822400      -0.77334279
Si       1.34656335       1.32140542       6.87050449      -0.18408479       0.66086309      -0.60703732
Si       1.28940269       4.16726950       4.07130083       0.39268983      -0.21005055      -0.22662145
Si       1.35400771       3.90722663       9.54457865       0.58252847       0.86668167       0.31551623
Si       1.44231977       6.85348176       1.42059339      -0.40873092      -0.36839805      -0.73625272
Si       1.28806181       6.79922792       6.86009457       0.55660570       0.35855348      -0.34251971
Si       1.35472930       9.59598456       3.92006341       0.43750766      -0.67288008       0.52576689
Si       1.43721760       9.60102455       9.51447429      -0.49218507      -0.87037055       0.09776351
Si       2.76460198       0.10907131       2.69059592       0.83613579      -0.71485943       0.51816990
Si       2.76988883      -0.09224665       8.04447760       0.24259372       0.45099363       0.15735442
Si       2.76704181       2.57149897       0.06635533      -0.69783464       0.59126754       0.13032534
Si       2.59789809       2.80080712       5.42524964       0.27682376      -0.14103487       1.13529452
Si       2.71952598       5.47710605       2.77149859       0.39379561      -0.47634624      -0.69970897
Si       2.65022081       5.37854076       8.13924646       0.14888813       0.24115396       0.78641186
Si       2.77520733       8.18704000      -0.00643554      -0.02404603      -0.17497208      -0.09008201
Si       2.65601641       8.20892629       5.40438027      -1.08542582      -0.94953498      -0.56391093
Si       4.01584814       1.44638607       4.20945646       0.49968778      -0.70861194      -0.68846675
Si       4.03241355       1.21130709       9.55808965       0.59606592       0.06194003      -0.62193292
Si       4.10299124       4.14194488       1.27010661      -0.67280517      -0.31329569       0.49761072
Si       4.06684500       4.04764470       6.89813871      -0.36065314      -0.64061009      -0.60392308
Si       4.03807861       6.77407750       4.14523673       0.60827870       0.04767392       0.43685012
Si       4.11213246       6.76296319       9.48556010      -0.61980274       0.16620570      -0.29632376
Si       4.12722655       9.57759904       1.28634875      -0.18633515      -0.47909955       1.03537102
Si       4.06822948       9.45124549       6.59864499       1.29814409       0.53598986       1.27152068
Si       5.52838935      -0.02274197       0.00241808       0.36246528       0.03615400      -0.57718698
Si       5.56294256      -0.06404965       5.33889882      -0.96950876       0.19840753      -0.33130653
Si       5.29305975       2.75037484       2.72391339       0.81471321       0.37171143       0.41600714
Si       5.40078975       2.55344810       8.13329507      -0.04926384       0.67504898       0.62494384
Si       5.49426388       5.35547249      -0.14889412      -0.40856263       0.48738924       0.54463159
Si       5.42751166       5.36384535       5.56829212      -0.00192482       0.50916840      -0.84707799
Si       5.39305731       8.10122698       2.71384172      -0.29326090       0.72269554       0.34297603
Si       5.45605940       8.17031319       8.14311940      -0.87868192      -0.41890723      -0.79715710
Si       6.72027780       1.48644463       1.33193144       0.13422537      -0.86434242       0.87381869
Si       6.77418741       1.31720984       6.73209555       0.38622461      -0.80334541       0.98531727
Si       6.82333332       4.07404033       4.13990421      -1.54779951       0.13499345      -0.84115224
Si       6.85265593       4.07260684       9.39474662      -0.69536553      -1.07572295      -0.30690147
Si       6.63507233       6.73427639       1.36280671       0.99839607      -0.02717920      -0.57874150
Si       6.80306916       6.76982392       6.82435638       0.08216308       0.34011008       0.02237219
Si       6.94027185       9.46696269       3.96201986      -0.94419564       0.24502209      -0.25486237
Si       6.84028890       9.44562441       9.41721183       0.26798173       0.71080870       0.59284542
Si       8.22567592       0.09771813       2.70276281      -0.25552593      -0.14654201      -0.97198245
Si       8.27409463      -0.05590725       8.12368971      -0.82764307       0.10473108      -0.70605494
Si       8.06849695       2.73343307      -0.03487029       0.70773552       0.60807196       0.47827528
Si       8.02526497       2.73153677       5.46940197       1.58973909       0.08575621       0.31306072
Si       8.05985448       5.40028650       2.69916409      -0.07010500       0.98036248       0.55260829
Si       8.19820845       5.43382946       8.16392734       0.32570881       0.53375001      -0.33698602
Si       8.11489907       8.09281979      -0.01404293      -0.62761802      -0.25589312       0.45547726
Si       8.11771181       8.21096902       5.47035052       0.54613445      -0.58884930       0.26797314
Si       9.47786803       1.45787832       4.12076345       0.59930237      -0.22449902       0.12482146
Si       9.40529196       1.35561038       9.52975592       1.19143401       0.19117564       0.15418920
Si       9.43718129       4.15765329       1.40172643       0.47887314      -0.92932938      -1.00530105
Si       9.52481145       4.14883201       6.75256608      -0.27978026      -0.51476506      -0.23210919
Si       9.41413752       6.83866903       4.05213361       0.16139789      -0.16400300      -0.02267035
Si       9.51310493       6.70272113       9.64751002       0.05415786       0.22812728      -0.68669162
Si       9.49020553       9.46588031       1.25009604       0.03085169       0.14053913       1.12737076
Si       9.65823057       9.46203431       6.76229431      -0.28070883      -0.10378068       0.25460659
64
Lattice="10.862 0.0 0.0 0.0 10.862 0.0 0.0 0.0 10.862" Properties=species:S:1:pos:R:3:forces:R:3 pbc="T T T"
Si      -0.01871816       0.01925311      -0.04895191       0.30513412      -0.43267257      -0.52248203
Si       0.05836978       0.12308969       5.38760122      -0.58751115      -1.11398770       0.03303955
Si       0.00300398       2.72371484       2.69138301      -0.09209604      -1.00140072      -0.00238657
Si      -0.06622235       2.82223970       8.08064628       1.61092963      -0.80969513       0.86436016
Si       0.01342740       5.37247491       0.02702508       0.19267375       0.37624203       0.07281514
Si       0.04036474       5.49669719       5.38833863      -0.64615528       0.12402000       0.48905495
Si      -0.09736406       8.11536972       2.69261758       1.40336133      -0.13172165       1.23269571
Si      -0.08059157       7.99936736       8.14193241       0.83234661       1.32666938      -0.45207807
Si       1.39572455       1.34344962       1.25836660      -0.72516225       0.12246174       0.72037094
Si       1.33815811       1.43195525       6.76500709       0.30875626       0.66846010       0.09078019
Si       1.28895051       4.02156055       4.08224342       0.93929282       0.91288720      -0.15188393
Si       1.44921923       4.03641122       9.55213641      -1.57997435       0.27156925      -0.61643466
Si       1.31628955       6.78115170       1.46938353       0.62161838      -0.57343886      -0.58983408
Si       1.45550168       6.82719668       6.82634619      -0.79559533      -0.65891361      -0.13540134
Si       1.37323727       9.45779009       4.09443254      -1.44585088       0.44680219      -0.61471174
Si       1.35942342       9.42660399       9.43557121       0.10650923       0.48163168       0.30518161
Si       2.61107296      -0.04442940       2.71139448       1.09145108       0.58408821      -0.05362962
Si       2.73096171       0.12850243       8.09016432      -0.55912556      -0.77311327       0.93286841
Si       2.73199556       2.73306731      -0.00898591       1.19520614      -0.50683973       0.49609515
Si       2.73803670       2.77887760       5.41710640       0.24498685      -0.53087362      -0.11699728
Si       2.79899390       5.52456234       2.84693825      -0.74895893      -1.50162239      -0.80284424
Si       2.71930410       5.42678727       8.24546900       1.10977420       0.18530928      -0.86308634
Si       2.72558517       8.10070485       0.08661705      -0.75744023       0.57149109      -0.17467818
Si       2.68222740       8.26868903       5.48887945       0.66368495      -1.35687681      -0.13994217
Si       4.11695326       1.34015539       4.03765770      -0.50935092       0.22398061      -0.18057109
Si       4.14304562       1.32200445       9.55871959      -1.05681620       0.51622133      -0.55142382
Si       4.16911484       4.03296739       1.37017482      -0.57679498       1.02511451       0.03126910
Si       4.18112235       4.05636925       6.76565835      -1.27883259       0.51090137       0.41348896
Si       4.11645991       6.74010496       4.25584043      -0.57826662       1.75710768      -0.60660459
Si       4.08563661       6.88288010       9.55585451      -0.42954181      -1.26863169       0.25832939
Si       4.06048095       9.49148609       1.40872342      -0.15283986       0.62495633      -0.64202301
Si       4.00469536       9.57743738       6.77296263       0.69732534       0.52443049       0.20671720
Si       5.45650735      -0.06757847      -0.10195975       0.12826738      -1.39487954       0.21743248
Si       5.44905939       0.01891422       5.45699572       0.07541752       0.28090654      -0.01500177
Si       5.56002002       2.62241995       2.59522813      -0.45683158      -0.27496839       0.45357663
Si       5.37680479       2.65401262       8.12372760       1.12158861       0.27363259       0.47004204
Si       5.49045285       5.52380186       0.01023159      -0.46840266      -0.45438155       0.13735022
Si       5.48384364       5.39402274       5.40509630       0.98368298      -0.13099477       0.84231102
Si       5.37414991       8.23846528       2.81190905      -0.56605828      -1.06088492       0.27795232
Si       5.27903909       8.13658581       8.10298062       0.92216959       0.31212989      -0.48457971
Si       6.81567496       1.17568192       1.22673842       0.96984338       0.36585273       1.00427170
Si       6.86806118       1.41529993       6.76782448      -0.46968163      -0.51702760       0.09029627
Si       6.80002137       4.08577086       3.97200162      -0.41881284      -0.09246053      -0.03887818
Si       6.76470466       4.08501594       9.51836204      -0.27361133      -0.79690602       0.41287548
Si       6.70215544       6.89497502       1.48005079      -0.50311253      -0.20528435      -0.68551154
Si       6.80464304       6.82964762       6.83573914      -0.69996745      -0.34778157      -0.50461954
Si       6.74799663       9.47552880       4.11136875      -0.33206481       0.39249557       0.52793919
Si       6.84034600       9.35911468       9.35879617      -0.58171637       0.56595815       0.86121023
Si       8.14848621      -0.23249189       2.76716706       0.39387864       1.58472356      -0.92133383
Si       8.18114782      -0.08653127       8.08001698      -0.13887129       0.69731610      -0.02593037
Si       8.19204914       2.69038705       0.03461925       0.02138497      -0.10591789      -0.68317722
Si       8.11674257       2.80117575       5.35539471       0.78506406       0.05746019       0.85326603
Si       8.04358948       5.52358278       2.66043001       0.98519382      -0.75735765       0.32374966
Si       8.04810638       5.43361927       8.20378730       0.97093666       0.43806788       0.07921844
Si       8.06457411       8.10619982       0.10179105       1.00780584       0.46273246      -0.79120616
Si       8.08332455       8.16103856       5.39715324       0.57327658       0.10942063       0.90463373
Si       9.41711774       1.35727184       4.05685022       0.40294314      -0.12785252      -0.47636746
Si       9.54073201       1.35705974       9.34819077      -0.57481081      -0.01778774       1.18361244
Si       9.51073930       4.09263995       1.44346761      -0.55440292       0.19492038      -0.69525380
Si       9.49468015       4.15313242       6.88105528      -0.78536543       0.89936258      -1.91065206
Si       9.37920881       6.85284918       4.01710324       0.60646032      -0.86047654       0.65071280
Si       9.49975824       6.80231101       9.55063312      -0.92246814      -1.06854534       0.75741310
Si       9.60689286       9.42844161       1.36431106      -1.34998740       1.16215024      -1.12523704
Si       9.55090925       9.49514307       6.75168473       0.34551428      -0.17817926      -0.62016880
64
Lattice="10.862 0.0 0.0 0.0 10.862 0.0 0.0 0.0 10.862" Properties=species:S:1:pos:R:3:forces:R:3 pbc="T T T"
Si       0.14690668       0.07543659       0.03277523      -0.96696040       0.00597940      -0.01558508
Si       0.03567755       0.08002885       5.33183383       0.03222283      -0.60165813       0.62272161
Si       0.01190553       2.75320864       2.72481394      -0.10826188       0.56869950       0.58210437
Si       0.01609694       2.84461638       8.12370643      -0.97906966      -1.46487727      -1.28478430
Si       0.02037724       5.36838220       0.09685885      -0.14221060      -0.15516039      -0.50879645
Si      -0.06868043       5.48950186       5.50191689       0.90454092      -0.12875765      -0.54963196
Si      -0.02022568       8.17187722       2.70000146      -0.66819472      -1.01339803      -0.39867029
Si      -0.00664996       8.12032430       8.04749295      -0.24725973       0.71941857       0.81607994
Si       1.42374141       1.39188939       1.51084954      -0.61328892       0.09048731      -1.02557868
Si       1.43774874       1.28552149       6.83052309      -1.29960061       0.48897089       0.01333170
Si       1.34608889       4.08931185       4.24611373       0.08364983       0.02574805      -0.91407499
Si       1.30474020       4.07559997       9.45091238       0.11178581      -0.08451859       1.78170573
Si       1.33226610       6.76439547       1.37018741       0.54255501      -0.11060128       0.86725298
Si       1.40173600       6.76000229       6.80441878      -0.81111511      -0.80283240       0.87628704
Si       1.30711515       9.40600211       4.01723479       1.15354160       1.06666803       0.89909045
Si       1.32291797       9.50285345       9.51018589       0.35144188      -0.39717226      -0.39796265
Si       2.76115101       0.03597124       2.70817412       0.55988251      -1.20944903       0.80084353
Si       2.73772624      -0.04772337       8.14843377       0.31086752      -0.70368328       0.17136983
Si       2.62741094       2.69102518       0.01600687       0.27290942       0.25677460      -0.31975105
Si       2.69474922       2.64447521       5.51663797       0.93045466       0.77861805      -0.50756111
Si       2.79349511       5.43069609       2.79274024      -0.77906233      -0.59296058      -0.55461963
Si       2.65634772       5.39563810       8.26202716       1.27600393       1.15997332      -0.42850292
Si       2.65700703       8.17235147       0.07918571       0.17972954       0.17089355      -0.18043116
Si       2.65494641       7.97179124       5.43855268       1.17908485       1.70766398      -1.09415685
Si       4.13474097       1.43859748       4.01863314      -0.87075074      -0.07481047       0.49553241
Si       3.99300959       1.37007882       9.50388132       0.23460461      -0.13643763       0.07159847
Si       4.06365930       4.02150287       1.30630694       0.21247434       0.77757248       0.13879463
Si       4.05183134       4.10033059       6.86807139       0.05642859      -0.44694734      -0.18933067
Si       4.16181156       6.79340946       4.03526169       0.09751054      -0.14300998       0.87757232
Si       4.06965165       6.81575629       9.68294716      -0.62942478      -0.04091360      -1.62927686
Si       4.13792016       9.41537199       1.41408901      -0.75672638       0.93543298      -0.40591193
Si       4.10340897       9.44051632       6.73530622      -0.57825435      -0.05924366      -0.08204006
Si       5.35892998      -0.02551200      -0.05114958      -0.37184466      -0.09803589       0.39813990
Si       5.38030096       0.03856273       5.36996232       0.40737015      -0.85448150      -0.36535137
Si       5.49254585       2.77170989       2.70624818      -1.00945446      -0.54092176      -0.80236840
Si       5.42495595       2.64742241       8.15625692      -0.28636649       0.23227959      -0.36107517
Si       5.47582538       5.41875579      -0.08927780       0.32018701      -1.05795697       0.51157530
Si       5.49471563       5.38795789       5.47407174      -1.16974697       0.37416695      -0.06254640
Si       5.52090641       8.14438700       2.71969055       0.35499034      -0.20456155      -0.12306692
Si       5.40767561       7.98928383       8.05815730      -0.31546587       1.05996455       1.22227381
Si       6.66829064       1.31302680       1.34328573       0.88725443       0.19374594      -0.29453621
Si       6.72359215       1.33695635       6.70572035       0.78900570      -0.01486480       0.98767199
Si       6.70464967       4.11942981       4.01491985       0.65489878       0.32393869       0.28502053
Si       6.85782223       3.98223893       9.39536390       0.05874562       0.79788030       0.55597776
Si       6.82683314       6.80181343       1.24006665      -0.11242137       0.20223269       0.46247643
Si       6.82758547       6.77014524       6.76065064      -0.43185191      -0.48548758       0.28988907
Si       6.86904798       9.58447956       3.98222438      -0.55685553      -0.67331102       1.06715899
Si       6.72365655       9.47300537       9.53188607       0.06031624      -0.71920359      -0.54007988
Si       8.16114979      -0.00195854       2.59189055       0.35436124       0.47235973       0.25777208
Si       8.11881318      -0.04809205       8.27197458      -0.11626465       1.22406031      -0.82671380
Si       8.15422525       2.68170352       0.05631414      -0.39051995      -0.21184981      -0.58664035
Si       8.01688931       2.84467708       5.39204843       0.83171786      -1.43279142      -0.23133421
Si       8.05446365       5.44633757       2.69201972       0.72434003       0.30454842       0.05317778
Si       8.18563546       5.55043191       8.13518699       0.22653670      -1.00256198       0.70292553
Si       8.23271286       8.24040255       0.01374421      -0.72230212      -1.04880775      -0.89904439
Si       8.07193671       8.09669188       5.46666004       1.44295012       1.72792614      -0.92141898
Si       9.50272486       1.36820141       4.01292856      -0.79127178       0.68148285       0.16762336
Si       9.55697960       1.40984374       9.49601844       0.02897325      -0.17081118       0.34498495
Si       9.43162556       4.07342098       1.38102618       0.35775450      -0.11701390       0.36400474
Si       9.42095237       4.15608708       6.69586003       0.07587797      -0.46934483       1.13429679
Si       9.50867255       6.74272931       4.07314009      -0.66289788       0.76375380      -0.23759285
Si       9.60721212       6.75637123       9.60651365      -0.43025136       0.70738334      -0.82339877
Si       9.54600753       9.50397726       1.30337604       0.77592634       1.04451565       0.29949904
Si       9.49803577       9.69277107       6.80314060      -0.02319946      -1.59470255      -0.55691873
64
Lattice="10.862 0.0 0.0 0.0 10.862 0.0 0.0 0.0 10.862" Properties=species:S:1:pos:R:3:forces:R:3 pbc="T T T"
Si       0.04371041       0.02989364      -0.03318645       0.11179177      -0.55166985       0.72766737
Si      -0.08739933       0.02895504       5.54638603       1.15709863       0.08651997      -1.33598811
Si       0.05193641       2.69069323       2.73991026      -1.75621001       1.03811201       0.38356670
Si      -0.02804581       2.76555688       8.12568958      -1.08464715      -0.60721361       0.79699673
Si       0.04103055       5.35303791      -0.01240973      -0.34986525       0.41860348      -0.86359733
Si       0.10266710       5.42373964       5.54112014      -0.18007652      -0.27338559      -0.52645013
Si      -0.08411838       8.11518985       2.69961161       0.85554204       0.02415374      -0.00610556
Si       0.04026240       8.16668266       8.25510611       0.26727529       0.09544047       0.06823925
Si       1.29732754       1.47758133       1.34888051       1.05604235      -1.06914895      -1.00418981
Si       1.23591647       1.33931119       6.91419500       0.94034432       0.04104817      -1.02315469
Si       1.39748115       3.91571797       4.17141306      -0.01854942       1.03605942       0.02503455
Si       1.37212346       4.06702476       9.36020315       0.79629485       0.44769683       0.98973731
Si       1.28527384       6.68503016       1.39502805       0.88909098       0.28730031       0.35240974
Si       1.43624989       6.87903658       6.88360771      -0.33398801       0.32770061      -0.99213102
Si       1.25949015       9.51240139       4.05426053      -0.48905658       0.31272462       0.24172545
Si       1.53219295       9.46739979       9.60298754      -1.08063854       0.30339763      -0.49834029
Si       2.56960510      -0.05998541       2.64918759       0.39785440       0.96764649       0.33302627
Si       2.67613371      -0.02659020       8.07464959       0.48389967      -0.09622717       0.95446456
Si       2.79893394       2.66616010      -0.09011639      -1.35311012       0.95393547       0.40970478
Si       2.73223332       2.60457075       5.51169291       0.24731140      -0.07329604       0.17188435
Si       2.75397245       5.32955414       2.80480543      -0.86837544       0.55903921       0.04899198
Si       2.79337001       5.55756448       8.14916425      -0.17111954      -1.10508659       0.27654015
Si       2.75458106       8.05540093       0.08088574      -0.14290603      -0.68787135       0.02828687
Si       2.69301965       8.20692802       5.30252339       0.31773591      -0.55034994       0.69652870
Si       4.07035656       1.30341112       4.00791148      -0.35990023       0.07693691      -0.08306154
Si       4.06991354       1.32063399       9.48800654       0.21015346      -0.84828605      -0.44699422
Si       3.99799809       4.06969097       1.35464283       1.18028149      -0.19869789      -0.47334235
Si       4.06798379       4.11067992       6.81529162       0.00512355      -0.93290721       0.41857031
Si       4.13722403       6.79470007       4.03508606      -0.19288564      -0.54854894       0.75086928
Si       4.16783143       6.72326215       9.58740152      -0.59257950       1.19878134      -0.82436420
Si       3.97937396       9.47818987       1.38781732       0.62924844       0.82123916      -0.58245155
Si       4.05920728       9.48994692       6.76693324       0.13422152       0.12472225      -0.61322277
Si       5.44453667       0.03334277       0.00745881      -0.37040332      -0.64648441       0.25458281
Si       5.44217061       0.04142791       5.41238492      -0.37672609      -0.36273557       0.23329281
Si       5.47931060       2.70578515       2.65746270      -0.98475534       0.08787082       0.07321933
Si       5.44490413       2.63790479       8.19823766       0.35021883       1.33747546      -0.46640523
Si       5.46822492       5.46064959       0.01443733       0.42446276      -1.37371432       0.71932638
Si       5.47614432       5.41725579       5.56092703       0.32365090       0.54980510      -1.20139883
Si       5.37109322       8.18228921       2.65265777       0.37551842      -0.29910036       0.28491251
Si       5.42150074       8.09997262       8.09499640      -0.69471664       0.47901391       0.90138518
Si       6.85116555       1.36307236       1.37087455      -0.32353543      -0.16409499      -0.46972792
Si       6.82627681       1.42797229       6.68777860      -1.11542728      -0.38253475       0.72501838
Si       6.77706630       4.07121849       4.00114209      -0.21470046       1.18129568       0.21108817
Si       6.89229844       4.11206547       9.52841916      -1.09048798      -0.72417028      -0.20070091
Si       6.77241128       6.90280764       1.27047688      -0.34633210       0.16726343       0.42503469
Si       6.86435810       6.86954070       6.87655362      -0.04356576      -0.66317937      -1.26001803
Si       6.69134795       9.48251516       4.07052982       0.25104907      -0.14067523       0.17022111
Si       6.72417181       9.51683876       9.42309448       0.27611698       0.69819550      -0.09797148
Si       8.05187147      -0.04118586       2.76876909       0.91604333       0.38700572       0.16599003
Si       8.11916165       0.07128700       8.01065354       0.57077939      -1.00748848       0.81504969
Si       8.17629575       2.61728773      -0.08616291      -0.28932521       1.63548588       1.63384090
Si       8.05706249       2.72725366       5.35356719       1.25007866       0.48139541      -0.50060283
Si       8.07424535       5.63830724       2.69536587       0.36629563      -1.56127956      -0.09060035
Si       8.14726688       5.41618955       8.10519227       0.81768512       0.02919115       0.18105948
Si       8.09145335       8.28693770       0.00554355       1.03766362      -0.23268013      -0.55161807
Si       8.14879668       8.19403874       5.39952724       0.75878592      -0.46632085       0.05617105
Si       9.49305986       1.33072503       4.12710262      -0.37005175       0.09501362      -0.64880181
Si       9.45271232       1.29496577       9.56461197       0.99810654      -0.23799683      -1.94302008
Si       9.46282971       4.16880041       1.32544802      -0.25728130      -1.10241071       0.65904211
Si       9.47500994       4.00011226       6.71914208      -0.14892633       0.79865873       0.03309168
Si       9.59047017       6.72459086       4.05277142      -0.66013068       0.28638066       1.20740735
Si       9.47492998       6.79732151       9.49912979       0.07342056      -0.12387240       0.67280846
Si       9.52354915       9.56690374       1.44961014      -0.43124055       0.14388949      -1.08195351
Si       9.63246678       9.47643602       6.79961004      -1.77767162      -0.44757127       0.68942611
64
Lattice="10.862 0.0 0.0 0.0 10.862 0.0 0.0 0.0 10.862" Properties=species:S:1:pos:R:3:forces:R:3 pbc="T T T"
Si       0.05794660       0.16552721      -0.03054178       0.64466253      -0.69906039       0.00304286
Si       0.03314660      -0.07937827       5.47880248      -0.03850359      -0.17678532      -0.50374904
Si      -0.14126857       2.80149564       2.72111674      -0.32348020       0.21331887       0.45601548
Si       0.06671649       2.72603200       8.07920850      -0.04170879       0.17672080       0.82084871
Si      -0.01723842       5.30429095       0.10682199       0.36114677       1.69861040      -0.49314558
Si      -0.04686335       5.49774766       5.51981827       0.63329950       0.57365027       0.56312064
Si       0.03809192       8.16157811       2.73057203      -0.25241167      -0.40731905      -0.96901548
Si       0.06359080       8.18408619       8.22801520       0.01380462       0.01995874      -0.89278757
Si       1.26196496       1.51510227       1.45920682       0.99430305      -0.71501346      -0.72158818
Si       1.36769938       1.19184263       6.93715336       0.50185200       0.68222825      -1.15502827
Si       1.17142924       4.07404509       4.18004606       0.93022720      -0.30156415      -0.28976995
Si       1.31941799       4.01593079       9.68487919       0.46235533      -0.10307294      -1.91140576
Si       1.39309147       6.71020624       1.39612043      -0.72426803      -0.07691224       0.39075642
Si       1.51103290       6.80274631       6.97447009      -1.05269802       0.26796661      -1.40642387
Si       1.42172435       9.42891432       3.98287315       0.14410690       1.38061071       0.78800044
Si       1.43260471       9.47525072       9.57251862      -0.21711248       0.88739937       0.32011542
Si       2.73636371       0.06332674       2.62142139      -0.88183052       0.30030557       1.26332816
Si       2.83647192      -0.05970537       8.21059849      -0.18195125       0.26434252       0.79399338
Si       2.73068929       2.66554890      -0.02156805       0.43785142       0.26636195       0.99957738
Si       2.66224826       2.64373029       5.40818045      -0.53967656       0.23605987       0.77128891
Si       2.64493163       5.35062629       2.80913140       0.17353020       0.19189135       0.13366846
Si       2.75549987       5.36680885       8.23053138      -0.50773775      -0.81391721       0.19868589
Si       2.68897150       8.09646106       0.09811559       0.64875234       0.52235639      -0.20221881
Si       2.74642184       8.21005619       5.44601519       0.35169514      -0.52046612       0.44712611
Si       4.07773372       1.39756021       4.06693591       0.04972790      -0.29243994      -0.60914267
Si       4.18774241       1.39995400       9.50724012      -0.38005002      -0.18347452      -0.12493867
Si       4.06939214       4.15525114       1.37087021      -0.92223318      -0.15480024      -0.74555939
Si       4.05400536       4.12150149       6.70080234      -0.39907058      -0.67580839       0.14846987
Si       4.05977418       6.81858554       4.02170004      -0.39458350      -0.04946941       0.31893131
Si       3.98510691       6.83843355       9.44900628       0.53726121       0.66565534      -0.01423304
Si       4.09250919       9.56620760       1.43709711      -0.51674328      -0.32666487      -1.36243329
Si       4.15335886       9.56959169       6.82458831       0.07044548      -0.18003733      -1.44419901
Si       5.44847512       0.04835870       0.09710455      -0.29028993      -0.53597746      -0.74987917
Si       5.50728555      -0.01044416       5.31054323      -0.07970682       0.03292840       0.46379149
Si       5.35370425       2.75011978       2.59238216       0.90966914      -0.39002567       1.00775686
Si       5.45077361       2.74901861       8.02894450      -0.00500015      -0.19761470      -0.13987245
Si       5.30337193       5.53601199      -0.06189124       0.82393992      -0.35697071       0.13620658
Si       5.40525066       5.41998115       5.31808485      -0.48891156       0.63572886       0.66474011
Si       5.38656891       8.17741257       2.66791718      -0.18268455      -1.26538406      -0.59700345
Si       5.45526182       8.10867515       8.02061716      -0.37061594      -0.12842815       1.04992943
Si       6.81921748       1.35907300       1.35142199       0.64885451       0.44244067       0.46132028
Si       6.89134841       1.34299268       6.72511104      -1.53066624      -1.34726833       1.29189647
Si       6.70529452       4.06501193       4.09039804       0.83913254      -1.08339834      -0.74645479
Si       6.68791957       4.13794049       9.43919867       0.28689609      -0.21704904       0.41617752
Si       6.74961724       6.85509088       1.25019320      -0.23223549      -0.75276929       0.94510307
Si       6.75415657       6.69477263       6.73516440       0.71596909      -0.24884123       0.13257685
Si       6.75073084       9.38826970       3.90895423       1.42133317       1.45863191       1.29242216
Si       6.63765467       9.46648924       9.53865821       1.35868077      -0.12327957       0.03243426
Si       8.24915091       0.06626981       2.77177853      -0.49809585      -0.72610302      -0.52788317
Si       8.12971863      -0.06277941       8.17844796       0.10450411      -0.26028061      -0.13509707
Si       8.09308364       2.68265529      -0.15106575      -0.04666078       0.32067944       0.35772077
Si       8.10270736       2.67687514       5.52021885       1.00184995       1.90169319      -1.28682738
Si       8.05112851       5.40337198       2.68283505       0.20915516       0.79351231       0.31987997
Si       8.20084930       5.37093923       8.15125725      -0.53289345       1.15316111       0.49001276
Si       8.19597489       8.12908689       0.05867739       0.69156820       0.81343305      -1.20553493
Si       8.07585389       8.07902842       5.39414217       0.04908461      -0.02481473      -0.39628318
Si       9.51104135       1.40645140       4.19398332       0.36357449      -0.35059003      -0.10410097
Si       9.57154615       1.36592748       9.42381930      -0.79111256       0.15741965      -0.34329020
Si       9.38115878       4.10164718       1.27771713      -0.84033967      -1.06635237       0.60758712
Si       9.50569910       4.09079397       6.82934207       0.07156225      -0.69996318      -0.73004739
Si       9.55426460       6.80941247       4.06562868      -0.96678873      -0.39890600      -0.33532952
Si       9.67330354       6.74877664       9.48008279      -1.35027603      -0.26067915       0.86322668
Si       9.66108797       9.62052325       1.30429257      -1.02301119      -0.51572722       0.52704351
Si       9.45849157       9.37889014       6.74029298       0.15255271       0.57016284       0.66644689
64
Lattice="10.862 0.0 0.0 0.0 10.862 0.0 0.0 0.0 10.862" Properties=species:S:1:pos:R:3:forces:R:3 pbc="T T T"
Si       0.04011999       0.00041165      -0.05290894      -0.28924374       0.06133844       1.15441686
Si      -0.00822849      -0.01036388       5.48227785      -0.18353834       0.84952545      -0.48538286
Si       0.00674706       2.59621473       2.67375670      -0.06865790       0.82875481      -0.01948630
Si      -0.02998075       2.76575120       8.16944227       0.32120859      -0.43690071       0.29378917
Si       0.08699927       5.53776685       0.00931198      -0.92357736      -0.83666077      -0.42892102
Si      -0.12709418       5.51999237       5.48306437       0.43943258      -1.14708039       0.03167113
Si       0.02118005       8.31214300       2.79796539       0.27677445      -0.24417421      -0.46402205
Si       0.08951451       8.19748570       8.16077016      -0.80824505       0.21543084      -0.01539318
Si       1.41887939       1.34634411       1.34773130      -0.18673773      -1.07465116       0.41581128
Si       1.33631753       1.47244620       6.74302523      -1.07440391      -1.69487149       1.27428880
Si       1.19094890       3.97951917       4.16541796       0.11521592       0.43466246       0.37251314
Si       1.44930168       4.17561547       9.40345423      -0.84050315      -0.76786410       1.40761525
Si       1.32111919       6.85949311       1.43910094       0.22040799      -0.28863010       0.52438118
Si       1.30476486       6.78535649       6.79592088       0.72248478      -0.30851345       0.29445845
Si       1.42967915       9.56074760       4.18369082      -0.46091822       0.05524015      -0.40738289
Si       1.39098730       9.55247413       9.55246577       0.32980010       0.17831536      -1.72765159
Si       2.78892127      -0.07150433       2.77234554       0.10718253       0.82362688      -0.51740452
Si       2.73320960      -0.08129241       7.89244869      -0.17296897       0.45700468       1.66254115
Si       2.70180780       2.68896261       0.02802787      -0.17138972       0.94826305      -0.81151405
Si       2.66009880       2.77192050       5.60571082       0.99159629       0.78050482      -2.13483005
Si       2.55353500       5.30862047       2.82848695       0.51120779       1.40440391      -0.08671374
Si       2.79810964       5.51224537       8.17561353      -0.17148476      -0.32557194      -1.29568695
Si       2.60725082       8.12231380      -0.04799420       1.34840423      -0.04140393       0.65868120
Si       2.66329995       8.07976615       5.41059228       1.13289476       0.01564443       0.25893361
Si       4.05570285       1.41778928       4.15554346      -0.20650081      -0.01060560      -0.08094292
Si       3.96586804       1.37364971       9.45892147      -0.55004668       0.06024573      -1.36727488
Si       3.92798488       4.01396855       1.50486354       0.83627114       0.20346952      -0.82626164
Si       4.12261128       4.10441526       6.79961570      -0.04024499       0.05247911       0.41260198
Si       4.12652788       6.84767155       3.97385845      -2.07738417      -1.27140470       0.75374980
Si       4.08864350       6.72890514       9.57026237       0.22912473       0.21243255       0.84455037
Si       4.09863796       9.56563038       1.19802125      -0.80047858      -0.68574301       0.74739360
Si       4.20991885       9.34542323       6.78554255      -0.42889510      -0.50087083       0.04978442
Si       5.30802393       0.16507514      -0.09582600       1.22113525      -1.06937341       0.25145613
Si       5.38600745       0.02565202       5.49227449       0.49983364      -0.74678669      -1.01956314
Si       5.42959075       2.69630563       2.68878295       0.05401064       0.40275560       0.97496869
Si       5.44394553       2.61016045       8.09902264       0.44197981       0.83458664       0.18460676
Si       5.43380935       5.32547619       0.10320369      -0.45411406       0.29545542       0.07494137
Si       5.34723575       5.43958654       5.33609895       1.58810748      -0.14340663      -0.09194566
Si       5.32626630       8.14414786       2.64239094       1.94814788       1.05937104      -0.85989550
Si       5.54741152       7.87159127       8.19497126      -0.20457395       1.22673501      -0.54971016
Si       6.72208685       1.43227995       1.27315324       0.19382999      -0.93037450       0.38555232
Si       6.86035154       1.23528712       6.75771815      -0.26834196      -0.00483371       1.18468079
Si       6.91403392       4.07703356       4.01308181      -1.22927157      -0.12125761       0.43434911
Si       6.78797338       4.15321323       9.44667901      -0.67664566      -1.41673190       0.44668149
Si       6.84962533       6.76154362       1.36685963      -0.92746044      -0.29647968       0.51136244
Si       6.91608348       6.76171862       6.63485871      -0.51533293      -1.02904353       0.99185855
Si       6.82739343       9.58590935       3.97447802      -1.45995706      -0.40702792       0.58882055
Si       6.65426215       9.46193556       9.54031740       0.80040561      -0.00532738       0.39277367
Si       8.14523643       0.03143810       2.65078105      -0.14174173       0.83319666      -0.34885040
Si       8.19343252      -0.11406531       8.23712625      -1.27949436      -0.35341490      -0.84545574
Si       8.10530943       2.66167659      -0.06608450       0.36304740       0.44316861      -0.65855158
Si       8.10784715       2.65251516       5.48283127       0.48870978       0.65530484      -0.72625176
Si       8.24649253       5.42324803       2.67403108       0.59104211       0.25828885       0.31292603
Si       8.23517608       5.41087566       8.24515086      -0.27564299       1.20980741      -0.98942151
Si       8.16846175       8.16346775       0.13845445      -0.92396169       0.10274113      -1.60402752
Si       8.13215670       8.30542986       5.45008996      -0.02298688      -0.78753080      -1.29149595
Si       9.50163661       1.38454309       4.04284671      -0.22345308      -0.84010676       0.57412011
Si       9.49805397       1.21401425       9.47082341       0.38477297       1.80941080       0.41586070
Si       9.51690067       3.94616968       1.28708706       0.57163231       1.00653469      -0.07206512
Si       9.44567437       4.04871893       6.83200262       0.15981899       0.09953846      -0.31006509
Si       9.58819232       6.92899170       4.10650540      -1.34240025      -0.21897515      -0.37428219
Si       9.50942789       6.93449339       9.52006234       0.41238294      -0.70591303       0.25100912
Si       9.47782755       9.52316507       1.34061138       1.10259180       0.71821186       0.45225082
Si       9.48668962       9.49451928       6.78926833       0.99714331       0.17508080       0.82504992
64
Lattice="10.862 0.0 0.0 0.0 10.862 0.0 0.0 0.0 10.862" Properties=species:S:1:pos:R:3:forces:R:3 pbc="T T T"
Si       0.17292162      -0.14452740      -0.07030029      -0.86575682       1.29825923       0.11360820
Si       0.00675627       0.02442460       5.54184876       0.61204000       0.45001885      -0.87482195
Si      -0.04461969       2.68825822       2.69281708      -0.68711632       0.46546318       0.35039586
Si      -0.10338779       2.77171672       8.11944121       1.37948165       0.03476878      -0.36456390
Si      -0.11729938       5.27695207       0.00729884       0.74708171       1.22989675      -0.31675846
Si       0.08036487       5.43965580       5.44600508      -0.64022280      -0.65140781      -0.88596104
Si       0.08884647       8.24680178       2.80496603      -1.19694815      -1.69284071      -1.18596719
Si       0.03310078       8.14239491       8.09761620      -0.58669525      -0.21100103       0.21533536
Si       1.28221032       1.37459133       1.37906277       0.98939543      -0.80952508      -0.30216752
Si       1.43205251       1.45219617       6.72998842      -1.22842310      -0.07728821       1.05618613
Si       1.37313080       4.11778878       3.97246767       0.38337159      -0.35618417       0.44977518
Si       1.34701596       4.09615417       9.49238262      -0.64417969      -1.45181997       0.75241150
Si       1.24036654       6.72363003       1.33300287      -0.19319175       0.78875483      -0.01077916
Si       1.35791653       6.77007227       6.72750843       0.74934773       0.11099080       1.28839936
Si       1.31063381       9.54250909       4.11731961       0.58540431       0.27226080       1.32501591
Si       1.50278625       9.40942388       9.45724991      -0.69122803      -0.45464626      -0.10196246
Si       2.65672831      -0.01509473       2.83814015       0.04963696       0.98424860      -0.87034839
Si       2.63655390      -0.03783538       8.08421013       0.15132727       0.98731765       0.15911114
Si       2.73653426       2.66833809       0.02158456      -0.51657288       0.71991854       0.10585203
Si       2.77505958       2.82253906       5.52169282      -0.31672114      -0.60980343      -2.34618069
Si       2.73601779       5.52108543       2.59142609       0.24913732      -0.56123488       0.75096203
Si       2.67781962       5.39044598       8.25719456       0.74996167       1.24587325      -1.15357630
Si       2.69007748       8.17352889       0.14619023      -0.10280596      -1.08936401      -0.60333098
Si       2.69504090       8.15760399       5.43768144      -0.37600119       0.52528014       0.13035155
Si       4.11091488       1.36118087       4.04894934      -0.61355161      -0.05007573       1.13003924
Si       3.96577390       1.31675125       9.46529906       0.20778346       0.61040724      -0.91622442
Si       4.15269045       4.07505058       1.33648808      -0.41858076      -0.68759750       0.75588783
Si       4.08059313       4.08474177       6.81078637       0.16513250       0.77701822       1.01226244
Si       4.01184459       6.90064770       4.08569223       0.98435523      -0.80554034      -1.01157902
Si       4.04904792       6.78585508       9.64541040      -0.51907989      -0.24606724      -0.30241015
Si       3.97385152       9.55092512       1.42704237       1.09224121       0.58703492      -0.01366011
Si       3.98635280       9.57628245       6.75929409       0.90998993      -0.51885080       0.04498826
Si       5.31810491       0.16105270      -0.01702511       0.27291518      -1.70884153       0.81504605
Si       5.46234645      -0.00714707       5.43052252       0.26613151      -0.05326169      -0.35645601
Si       5.48660811       2.70086910       2.83147924       0.41566268       0.60897045      -1.05784247
Si       5.39496510       2.64166221       8.05341408       0.64621322       0.40827223       0.77315662
Si       5.44480941       5.34394204      -0.03453141       1.10284386       0.69722562      -0.06573802
Si       5.36858762       5.45244020       5.45091341       0.31100826       0.45344662      -0.18968255
Si       5.49406681       8.18443391       2.65122402      -0.76175831      -0.13815550       0.50242061
Si       5.24382039       8.20249081       8.25400436       1.03719526       0.12044994      -0.38309886
Si       6.76292800       1.26798503       1.38584576       0.93503848       1.01498618       0.14262873
Si       6.86842123       1.41646412       6.69064637      -0.38402090      -0.45168578       0.28522460
Si       6.85641885       4.11302825       4.18052062      -0.66332604      -0.45384015      -0.22665305
Si       6.88444858       4.06816138       9.43575399      -0.81675160      -0.35199245      -0.34099838
Si       6.83349643       6.83412393       1.31663298      -0.61785820      -0.65837495      -0.19027352
Si       6.69455312       6.86567252       6.82104817      -0.16576154       0.67034845      -0.09440151
Si       6.85506427       9.37705861       4.12445239      -0.64028093       0.78323016      -0.28771120
Si       6.73018056       9.49781891       9.67770540      -0.40090856       0.45382482      -1.21133436
Si       8.20120189      -0.11606862       2.79174396      -0.80939736       0.71755083      -0.46101077
Si       8.04758815      -0.10148942       8.05983787       0.60843291       0.17044794       0.50217157
Si       8.24789363       2.63398353      -0.16316301      -1.04003909      -0.83547848       0.61155392
Si       8.31754817       2.71213496       5.36477882      -0.95425417       1.00653146       1.04385405
Si       8.05335825       5.39113290       2.68065003       0.79272651       0.40716024      -0.06679691
Si       8.10451111       5.66035678       8.19078859      -0.42081620      -1.65377631      -0.89490524
Si       8.21273277       8.21648723       0.06124290       0.25136776      -0.17686385       0.09034088
Si       8.23907760       8.09054454       5.39097875      -0.78938491      -1.37131488      -0.06935958
Si       9.49988947       1.26923252       4.13075648       0.97227226       0.11310677      -1.01528099
Si       9.61697877       1.25590529       9.37865550      -0.62083131      -0.99156437       0.36954935
Si       9.37067186       4.01881650       1.26676512       0.15452683      -0.57138480       1.35268144
Si       9.48254902       4.20312977       6.80595837      -0.21976537       0.04312259       0.02450041
Si       9.56174812       6.69908092       4.02271474      -0.10931147       0.36280458      -0.13821681
Si       9.47771139       6.76783035       9.55700706       1.07449857       1.13939550       0.11899313
Si       9.60927284       9.57950281       1.39684408       0.12118232      -0.64502024      -0.24369696
Si       9.49675045       9.47127490       6.62207685       0.04383775       0.07641597       2.28104556
64
Lattice="10.862 0.0 0.0 0.0 10.862 0.0 0.0 0.0 10.862" Properties=species:S:1:pos:R:3:forces:R:3 pbc="T T T"
Si      -0.09171329      -0.00552027      -0.12779217      -0.50720649      -0.08339180       0.72474145
Si      -0.02045651      -0.05693381       5.46422958       0.30596774      -0.15026511       0.05226637
Si       0.01768346       2.50503342       2.70136377       0.18542057       0.80974107       0.09315439
Si      -0.10157784       2.68510565       8.03748351       1.08612904      -0.26749320      -0.04370038
Si       0.11843880       5.40182932       0.01139165       0.87376772      -0.67900212       0.88055922
Si       0.03051807       5.38655716       5.47131658      -0.37805697      -0.37439574      -0.47769393
Si      -0.09851745       8.06943381       2.74309135       0.81815502       0.22909274       0.59199464
Si      -0.09656489       7.96315867       8.30213086       0.22918304       1.00951454      -0.12390972
Si       1.35697184       1.23554012       1.20074783      -0.35025688      -0.14232692       1.12819125
Si       1.40345197       1.31847452       6.75497569      -0.03080381       0.34637074       0.24999358
Si       1.33008329       3.96441635       4.15338939      -0.25992299       0.25437863      -0.90110760
Si       1.35424320       4.01427034       9.33855160      -0.64508878       0.20050524       0.69623006
Si       1.42828186       6.78175825       1.50795081      -0.22925806      -0.03797266      -0.69504973
Si       1.23335261       6.79180298       6.79479146       1.71269882       0.24210342       0.44468480
Si       1.37729976       9.50622362       4.06193688      -0.50906880      -0.54514355       0.08466639
Si       1.29163137       9.57670759       9.46209924      -0.04864706      -1.48131468       0.01004993
Si       2.72244603      -0.03737298       2.69785924      -0.42655527       0.37661331      -0.27382924
Si       2.74476286      -0.01363060       8.22764858      -0.32524648       0.20237479      -1.05272027
Si       2.55451604       2.76597943       0.03408092       1.14995566       0.28464398      -0.71566673
Si       2.77606682       2.83249219       5.48877985       0.21868313      -1.36885216      -0.26746040
Si       2.75372623       5.37856976       2.87454717      -0.06996465       0.12799344      -0.30393087
Si       2.75898831       5.42310462       8.16096458      -0.62288372       0.05519004      -1.21307325
Si       2.63843248       8.25985637       0.04831515       0.40201537      -0.38534265      -0.04275924
Si       2.77976751       8.26286199       5.53026206      -0.62970663      -0.94258129      -0.42755878
Si       4.03446755       1.45534049       3.88865129       0.12519411       0.60933143       0.83211643
Si       3.98229835       1.39149791       9.53603233       0.44181084       0.52280547       0.40885717
Si       4.02235151       4.20562887       1.23599511      -0.48708604      -0.27508280       0.41365364
Si       4.18788831       4.09985290       6.82019583       0.04062896       0.15317569       0.09599538
Si       4.15208042       6.80135294       4.15054575      -0.39613777       0.03200636       0.28217473
Si       3.97316698       6.85692385       9.42733573       0.69620290       0.67932984       1.27708894
Si       4.13830466       9.57198606       1.38280855      -0.37005748       0.00823407      -1.00972537
Si       4.15575428       9.65576852       6.76648042      -0.08210050       0.02885165       0.26381208
Si       5.47043873       0.11286609      -0.01624325      -0.73026263      -0.65732291       0.02233929
Si       5.41752937       0.16359778       5.32371202       0.21212857      -0.79113596      -0.50798484
Si       5.39931599       2.79973109       2.47142109       0.32061354       0.05657772       1.19344090
Si       5.45506248       2.61037572       8.13020351      -0.12856972       0.54652417       0.44294563
Si       5.44030839       5.51491962      -0.03211111      -0.07137965       0.00251447      -0.76863358
Si       5.58184636       5.40887335       5.44716213      -0.46702552       1.02758762       0.69153037
Si       5.37213883       8.11981391       2.62411009       0.19929348       0.22805812       1.33354325
Si       5.42084228       8.28294115       8.19668907      -0.88115391      -1.16849167      -1.14192470
Si       6.82865599       1.37388366       1.29771061       0.80618526       0.18829949       0.57706722
Si       6.82989506       1.34006961       6.75133029      -0.08426504       0.02764839      -0.16014298
Si       6.80250088       4.07761555       4.07310469       0.08362981      -0.15708933      -1.82886966
Si       6.80547465       4.00365891       9.52518531      -0.14720512       0.77299386      -0.45465657
Si       6.75527690       6.83016399       1.40021541       0.97034298      -0.80614692      -0.59437814
Si       6.84293748       6.90273223       6.88627879      -0.71724673      -0.87291819       0.26811500
Si       6.77614235       9.45724631       4.00674274      -0.12520372       0.13223402       0.77473238
Si       6.70163383       9.51085725       9.51804539       1.30072916       0.92851866       0.36443185
Si       8.18987999      -0.01312899       2.75081125      -1.44325513      -0.31504601      -0.78007605
Si       8.14534915      -0.01393736       8.12486581      -0.83042284      -0.67567200      -0.13513875
Si       8.23418895       2.71394660      -0.02655575      -0.25188231       0.24969900       0.37842224
Si       8.10520105       2.69414638       5.33617668       0.57756812       0.01192296       0.67772064
Si       8.28649542       5.43728096       2.67150489      -1.58943315      -0.09505848       0.43138732
Si       8.21650506       5.49054254       8.17243217      -0.57792499      -0.72354337       0.47450705
Si       8.09162094       8.11840238      -0.06382957      -0.25222778       0.84737319       1.40445500
Si       8.16040794       8.14402446       5.54631152      -0.13398981       0.34322017      -1.53272824
Si       9.46098982       1.24717583       4.07592748       0.74630106       0.75328708       0.75406494
Si       9.43119243       1.36883542       9.37824179       0.46777052       0.11530451       0.81789753
Si       9.59570066       4.05768748       1.38940935       0.53059653      -0.70017476      -0.42511166
Si       9.46699270       4.06601948       6.76144001      -0.46693124       0.24650747      -0.41466148
Si       9.47920886       6.69626178       4.17353570       0.14819944       0.79987468       0.06904417
Si       9.48347493       6.65630441       9.78079097      -0.12089505       0.32158877      -1.57563580
Si       9.47485474       9.48612880       1.42898461       0.08757592      -0.17774845      -1.43390964
Si       9.50579329       9.42889337       6.88423579       0.65057544       0.10152190       0.09616229
64
Lattice="10.862 0.0 0.0 0.0 10.862 0.0 0.0 0.0 10.862" Properties=species:S:1:pos:R:3:forces:R:3 pbc="T T T"
Si       0.06747269      -0.04522708       0.02784853      -0.02344222       0.21316085      -0.11631415
Si      -0.02824415       0.06022254       5.38991807       0.49203967       0.14513578      -0.37537844
Si      -0.01862159       2.71807418       2.79739298       0.07301572       0.17783602      -1.50234477
Si       0.07037813       2.65275937       8.17044971      -0.49548082       0.78402409      -0.41030861
Si       0.02345626       5.55291772       0.00538681       0.01407670      -0.97803788      -0.23565081
Si      -0.10033459       5.39102955       5.51553310       0.22591556      -0.16968867       0.34830220
Si       0.00068671       8.26583068       2.75231946      -0.20733609      -0.57264853      -0.25694536
Si      -0.03973417       8.21752574       8.11986572       0.40472722      -0.29548019      -0.47780637
Si       1.36241904       1.34515780       1.42556231      -0.23080198      -0.20342356       0.30467509
Si       1.41442583       1.37546373       6.71536513      -0.45019995      -0.01202630      -0.04761121
Si       1.26143546       4.07052267       4.10110388       1.13477410       0.81394898      -0.04048478
Si       1.36145207       4.15933634       9.45654780      -0.34663954      -0.46141512       0.69256270
Si       1.33225763       6.89739050       1.31595998       0.86455765       0.28400462       0.70567743
Si       1.35455753       6.81609931       6.75859870      -0.18106658      -0.12079540       0.21726175
Si       1.43968097       9.55661256       4.08200868      -0.95978802       0.25629369       0.04376143
Si       1.41798836       9.57971168       9.39786247      -0.20188385      -0.33800834       0.26218698
Si       2.78724881       0.00988974       2.78341683       0.35432039       0.40164775      -0.76530323
Si       2.75136742      -0.01309629       7.96581313       0.40738188       0.21818847       1.19477897
Si       2.61216153       2.70601942       0.01877886       0.06883815       1.09576066       0.46475620
Si       2.75011057       2.68765612       5.33753238      -0.41898694       1.35626240       0.82196667
Si       2.77595268       5.41779311       2.62521004      -2.13928305       0.31433502       0.67351958
Si       2.74430518       5.46220706       8.15966842       0.13548160      -0.12130465      -0.68421239
Si       2.77874107       8.23380440      -0.04206398       0.01996640      -0.48892258      -0.29877805
Si       2.70522301       8.08527742       5.29185841       0.18171734      -0.24527101       0.92816228
Si       4.14060177       1.42538604       4.10407134      -0.10747727      -1.37093117      -0.23602981
Si       3.97880033       1.41223790       9.61431727       0.38584646      -1.26536319      -0.87606845
Si       4.06186835       4.03129477       1.45671021       0.86508778      -1.04663998      -1.11165302
Si       4.12640495       4.06312012       6.79771246      -0.99372151      -0.27039377       0.04835412
Si       4.06564281       6.70704006       3.99390506       0.43340381       0.36084863       0.32984802
Si       4.16509363       6.62171918       9.59065003      -1.43931675       1.09649568       0.05583302
Si       4.16350408       9.58875775       1.31516446      -0.67472415      -0.20213648       0.48743614
Si       4.06881428       9.31282300       6.80789828      -0.24266795       0.63161287      -0.83948570
Si       5.50356644       0.20325951       0.17039295       0.18097981      -0.38140474      -1.28517777
Si       5.37148439      -0.07610732       5.40763063       0.01524461      -0.09314511       0.87508327
Si       5.52995836       2.67244127       2.82136661      -0.13515871       1.91261429      -0.01474002
Si       5.34630942       2.64076023       8.18925752       0.36591630      -0.08031764      -0.31070183
Si       5.47584343       5.36734845       0.04066441       0.15648043      -1.16022823       0.87446903
Si       5.40152261       5.48245502       5.52298582       0.66359865       0.10542695      -0.59296443
Si       5.39441364       8.11369795       2.63814429       0.24243607      -0.74041812      -0.48924363
Si       5.33458703       8.05896779       8.27226436       0.19739240       0.73753670      -0.01762643
Si       6.93150926       1.60781571       1.40369994      -0.35334118      -1.54791895       0.12988450
Si       6.74486142       1.22125170       6.86829819      -0.26179039       0.46027639      -0.66124954
Si       6.88963843       4.10989425       4.22906062      -0.81112231       0.26541816      -0.70704720
Si       6.72469680       3.95664316       9.51388002       0.31469928       0.64515480      -0.12801533
Si       6.87245028       6.69146072       1.32849767      -0.06632018       0.72594289       0.38689803
Si       6.69637280       6.96025358       6.83678252       0.90600465      -1.21747195      -0.06220161
Si       6.64558592       9.47923860       3.97965152       0.62338760       0.71194030      -0.05569743
Si       6.68900089       9.49960562       9.50527560       0.27794496       0.72520700       0.44080573
Si       8.08454758       0.04950305       2.71791268       0.37507876      -0.64473945      -0.60294485
Si       8.16749018      -0.07699010       8.12596808       0.25647195      -0.10046468       0.48310389
Si       8.22061720       2.71036063      -0.07289956       0.51352734       0.77589489      -0.14559509
Si       8.11028729       2.58404534       5.43076732      -0.55370868       0.29697689       1.15363249
Si       8.25326023       5.43641798       2.78540653      -0.44994116      -0.40965877      -0.41651472
Si       8.06944921       5.42143015       8.21194758      -0.43717081      -0.04064562      -0.77903824
Si       8.12431827       8.05506696      -0.17429796      -0.05610990       0.44008517       0.99598107
Si       8.00824838       8.25480781       5.38150611       0.68113589      -0.84910460      -0.15737646
Si       9.44780679       1.42943637       4.02275681       0.26084861      -1.30305154       0.27919590
Si       9.57674394       1.31199665       9.52284783      -0.11517137      -0.58275533      -0.28840669
Si       9.54633578       4.08988267       1.31570449       0.19334185       0.10131841       0.30812950
Si       9.34128501       3.97332229       6.84434388       1.00836198       0.07179144       0.14624048
Si       9.52832910       6.80954169       4.13556691      -0.13066465       0.81318124      -0.00528413
Si       9.54599287       6.73916911       9.42384787      -0.16481026       0.36141995      -0.15469569
Si       9.46314775       9.48097684       1.25023707      -0.41563094      -0.01920307       0.59984568
Si       9.50122274       9.51268889       6.63416474      -0.23024437       0.03327366       0.89654407
64
Lattice="10.862 0.0 0.0 0.0 10.862 0.0 0.0 0.0 10.862" Properties=species:S:1:pos:R:3:forces:R:3 pbc="T T T"
Si      -0.01557511      -0.08354052       0.15530293       0.66777613       0.82765109      -1.83785367
Si       0.01539133      -0.02523482       5.45840905      -0.20228949      -0.01400270      -0.28717264
Si       0.10513947       2.67385661       2.71165966      -0.75728707       0.30689819      -0.52444137
Si       0.03794762       2.70070648       8.18402671       0.16551852       0.28121794       0.79632588
Si      -0.10623688       5.30629600      -0.00892912       1.32521830       0.43435922       0.50726640
Si       0.06882415       5.43899703       5.50323862       0.06795864       0.39605932      -0.68490518
Si      -0.08036477       8.14852633       2.72619753      -0.67242145      -0.39549980       0.29847912
Si       0.07496039       8.06317110       8.12703660      -0.19078904       0.32887586       0.57801207
Si       1.37333781       1.27817942       1.35073099       0.49591008       0.45464215       0.54319109
Si       1.33588286       1.38909015       6.80295349       0.39617947      -0.32936257      -0.50006451
Si       1.39586007       4.12617381       3.98498975      -0.09827155       0.22810897       0.51991658
Si       1.44220737       4.14520053       9.53052767      -0.39874117      -0.41925834      -0.46542157
Si       1.27310525       6.73801895       1.41392153      -1.31459811       0.85241564      -1.50915518
Si       1.54201025       6.79471997       6.78073842      -0.41960430       0.66232703      -0.67453013
Si       1.31146874       9.43277118       4.06365231      -0.19511530       1.09965429      -0.34972005
Si       1.38478106       9.59328777       9.53032108      -1.61132497      -0.96132654      -0.40840603
Si       2.74448002      -0.05356268       2.75097810      -0.47152147       0.00486979      -0.16174038
Si       2.66661863      -0.13742568       8.05614447      -0.07914692       1.14117517      -0.26529902
Si       2.69430010       2.70339280       0.03187303      -0.24522781      -0.55480011      -0.70083727
Si       2.70127217       2.73593381       5.38520167       0.20065679       0.00964369       0.27769411
Si       2.69956817       5.55415594       2.61349051       0.42079395      -0.55959779       1.59209163
Si       2.83438135       5.49562106       8.14814548       0.61872761      -0.67510493       0.25260993
Si       2.52037458       8.15553676      -0.03382167       2.04995561      -0.75009755       0.58939447
Si       2.79841260       8.30736860       5.31698443      -0.01533717      -0.96939018       1.42017401
Si       4.06437400       1.34121824       4.05576466      -0.76398024      -0.40055749       0.82336166
Si       3.90875119       1.20168262       9.45754874       0.69517540       1.10654261       0.21478013
Si       3.93707910       4.13059810       1.33108968       0.66251789      -0.75651819       0.70389193
Si       4.16732273       4.01359501       6.77547379      -1.11890071       0.02774391       0.36839884
Si       4.05435589       6.87410644       4.05771775       0.71409465      -0.63192872      -0.65548810
Si       4.23518929       6.85258523       9.51065172      -1.60169770       0.45745552       0.04643734
Si       4.04854372       9.53773633       1.32356817      -0.15214510      -1.43315742       0.12721066
Si       4.17573665       9.58092169       6.75289073      -0.23278523      -0.51110778      -0.15394157
Si       5.35752290       0.02787113      -0.00189996       0.11846829       0.13090213      -0.06792768
Si       5.48181546       0.07139257       5.41311635       0.16498462       0.02533808      -0.33390299
Si       5.26840379       2.73401528       2.78574653       0.74907864       1.50694672      -0.44177831
Si       5.37382611       2.59778961       8.17591394       0.59580024       0.32970136       0.47582121
Si       5.32171448       5.35704553       0.00956467       2.03195678       0.32180296      -0.20320652
Si       5.36545828       5.44239260       5.45038022       0.59407131       0.65115552       0.03363944
Si       5.51685011       8.05233821       2.59349184      -0.46231849       0.93168662       0.37963433
Si       5.51822640       8.27987711       8.16442784      -0.58411478      -0.20724146       0.35393165
Si       6.58435282       1.48963715       1.36564427       0.56281943      -0.47578321      -0.27650578
Si       6.81501074       1.42839309       6.74434473       0.61050708      -0.08664065       0.12768715
Si       6.77104146       4.05764425       4.16939139      -0.17769606      -0.18067396      -0.34823902
Si       6.86276443       3.99049621       9.56698904      -1.54421145       0.53102720      -0.86006723
Si       6.91837810       6.73425904       1.28423252      -0.51346444      -0.70209745       0.34296586
Si       6.74055778       6.84701040       6.88362608      -0.04409610      -0.14865168      -1.34059360
Si       6.78183080       9.52772420       4.03806289      -0.79052122       0.38279400      -0.92036653
Si       6.79444342       9.58833589       9.56218411       1.16236394       0.06690663      -0.32616280
Si       8.02877829       0.17835590       2.70078342       0.06355602      -0.30760811       0.22994326
Si       8.22277222      -0.03739134       7.97717435      -0.87219604       0.12621957       1.16611245
Si       8.11707081       2.59601041      -0.02681198       0.58184236      -0.66432242      -0.09268651
Si       8.29988545       2.77741437       5.45353919      -0.62097614      -0.11016534       0.05206910
Si       8.16236796       5.35808287       2.82482960      -0.36244140      -0.50872608      -1.60203711
Si       8.07675021       5.50192335       8.18444878       0.80984790      -0.81715104       0.26095438
Si       8.25991548       8.16691132       0.01508393      -0.63100301       0.60409272      -0.05940537
Si       8.01236670       8.21202283       5.37895442       0.85758577      -0.96980421       0.94920914
Si       9.55852363       1.36517007       4.04542375      -0.07410724       0.02104964       0.30462383
Si       9.58605704       1.17941321       9.45771622      -0.43361603       0.79543529       0.44085886
Si       9.46251242       3.95256373       1.27413630      -0.00716720      -0.20348953       1.65506443
Si       9.60826026       4.11827203       6.87196888      -0.76806908       0.20775714       0.17847457
Si       9.36685559       6.73670008       4.15136312       1.39212694       0.65906222       0.28555153
Si       9.53138478       6.72729877       9.59444122      -0.02442646       0.75462196      -1.33257274
Si       9.43936367       9.66008364       1.43094219      -0.66144093      -1.55539347       0.75341860
Si       9.52143858       9.40326261       6.74831197       0.33755849      -0.36668147      -0.26476681
64
Lattice="10.862 0.0 0.0 0.0 10.862 0.0 0.0 0.0 10.862" Properties=species:S:1:pos:R:3:forces:R:3 pbc="T T T"
Si       0.03529152       0.02253073       0.10718950       0.22914469      -0.23968620       0.82439973
Si      -0.04595221       0.02977283       5.49072014       0.20034229       0.21079966      -1.68921885
Si       0.04912262       2.87735748       2.66147577      -0.12558515      -0.93473054       0.88010546
Si      -0.03612026       2.53529780       8.16632795      -0.26414540       2.06378760       0.24073252
Si       0.02463622       5.56952547      -0.19896989      -0.38370645      -0.37433225       1.17733048
Si       0.09939350       5.34093785       5.52254538       0.15848084       0.64987416      -0.02651630
Si      -0.12927344       8.10805168       2.87053876       0.99389133       0.22039273      -0.06207680
Si       0.04200588       8.32713094       8.11422358      -1.17932289      -0.95127397      -0.41385630
Si       1.41309268       1.35660634       1.56009948      -0.50835352       0.01042510      -1.02685675
Si       1.29251716       1.34127454       6.81125596       1.22231385      -0.52390580      -0.33431138
Si       1.51493595       4.09793966       4.06872098      -0.78516189      -0.20102900       0.15465387
Si       1.32151221       4.06893636       9.50317011      -0.20640601      -1.27736013       0.06658948
Si       1.22487366       6.86008272       1.41170406       0.28339123      -0.79035699      -0.04693115
Si       1.39945541       6.83321814       6.88058982      -0.49150977      -0.16154969      -0.20640279
Si       1.36710173       9.48178717       4.12486515      -0.92159510      -0.60653287       0.93741281
Si       1.29652504       9.50174075       9.58260326       1.02198691       0.04610317       0.47736371
Si       2.66847049      -0.08916768       2.82272205       1.33096602       0.43006371      -0.59181737
Si       2.67398589      -0.10684580       8.14408134      -0.12361556       1.34950347       0.73817884
Si       2.66614613       2.67138049       0.07970245       0.02898082       0.52544366      -0.19454017
Si       2.73679769       2.61852764       5.41595322      -0.01325367       0.52417021       0.58443044
Si       2.73916036       5.45327958       2.64617620      -0.22920277       0.75931786       0.37222394
Si       2.64158495       5.34243060       8.17101085       0.87767242       0.74579782      -0.14165980
Si       2.68034046       8.04828614       0.06919452       0.41601764       1.10776372      -0.24801471
Si       2.76133241       8.17217764       5.54274095      -0.26138181      -0.11542950      -0.61746114
Si       4.10893104       1.24704136       4.14838406      -0.02996420      -0.02990202      -0.30034833
Si       4.02950668       1.46211581       9.48684647      -0.04700256      -1.23896744      -0.28049723
Si       4.07071598       4.00479484       1.42639608      -0.41222016       0.76604445      -1.21998079
Si       4.04762025       4.15054834       6.74537393       0.03360113      -0.78035850      -0.33629892
Si       4.04288354       6.85052207       4.08724753      -0.17294589      -0.43681188      -0.01858805
Si       4.03827133       6.69690092       9.53909029       0.45476325      -0.20279762       0.13180045
Si       4.12523912       9.59272631       1.32184369      -0.92531629      -0.42467961      -0.32044546
Si       4.10212381       9.52291366       6.86108540       0.60644837      -0.45090546      -0.18562467
Si       5.49046042      -0.02790362      -0.16112494      -0.64997323      -0.01924349      -0.32179289
Si       5.51468022      -0.03695980       5.51338686      -0.05122280       0.73198327       0.52591152
Si       5.32581904       2.67364134       2.69852923       0.92027596      -1.03451721       0.58971610
Si       5.39199488       2.70082412       8.05031167       0.15061004       0.57178681       0.26478610
Si       5.50883392       5.34039888       0.07264799      -0.61642532       0.73122427       0.02715473
Si       5.44150930       5.40021469       5.31745222      -0.03760592       0.35644282       0.23492970
Si       5.32599140       8.23137727       2.75816301       1.04623003      -0.10401141      -0.21476860
Si       5.46336204       8.03676166       8.10391304      -0.88178772      -0.73441076      -0.23815438
Si       6.70165569       1.30715404       1.27602292      -0.23762026       1.17143524      -0.31594287
Si       6.91892421       1.47547976       6.76299034      -0.61805907      -0.36632429      -0.25694197
Si       6.76393588       4.07888161       3.91783780       0.21684505       0.23995968      -0.26801246
Si       6.75599838       4.00602137       9.50997210       0.19224698       0.27907134      -0.63597834
Si       6.79399991       6.87483004       1.39547462      -0.29107669      -0.09167980      -0.15033384
Si       6.84762419       6.67044069       6.74682885       0.02241188       0.36485285      -0.14834356
Si       6.78096781       9.55502778       4.10631056      -0.12565847      -0.05490074      -1.17150879
Si       6.79815104       9.40714873       9.29776130       0.66871986       0.90895744       1.32506380
Si       8.03170823       0.12747059       2.63861277       0.61882869      -1.52282126       0.65626006
Si       8.18916385       0.06195575       8.12635306      -0.14390827       0.02263747       0.42484863
Si       8.12264649       2.71767894      -0.01437425      -0.09492199      -0.74349570       0.03961341
Si       8.15344852       2.86089234       5.31630290       0.34882751      -0.81403179      -0.05555072
Si       8.23553438       5.44123328       2.56416908       0.00280197      -0.26623457       0.62790830
Si       8.23942071       5.38953193       8.22852485      -1.29510015       0.25300434      -0.22969765
Si       8.16239384       8.23649473       0.03625224      -0.28482945      -0.16376585      -0.41410902
Si       8.12009903       8.16330646       5.31607483       0.28110412      -0.57807551       1.27551641
Si       9.48304693       1.33975078       3.93458594       0.61020599       1.25355211       0.90815854
Si       9.56136531       1.31966718       9.62145693      -0.93452581      -0.32857509      -0.21288788
Si       9.59956429       4.01306419       1.16728060      -0.18332187       1.56321456       0.09832181
Si       9.46797427       4.09324163       6.81979318       0.95340668      -1.02701487      -0.05229092
Si       9.52785649       6.68316190       4.19310652      -0.36418175      -0.52655498      -0.39024079
Si       9.45924157       6.91046272       9.43029151       0.51891080       0.56833653       0.14663553
Si       9.52348639       9.49737075       1.49034948      -0.58210742       0.74834661      -0.63635203
Si       9.43291337       9.59755543       6.71583361       0.06358899      -1.05802585       0.24430732
64
Lattice="10.862 0.0 0.0 0.0 10.862 0.0 0.0 0.0 10.862" Properties=species:S:1:pos:R:3:forces:R:3 pbc="T T T"
Si      -0.05964171      -0.11709205      -0.05467268       0.80829353       0.05479465      -0.41574040
Si       0.06900783      -0.16577900       5.47387558      -0.08346713       1.06423474      -1.18354753
Si      -0.05419717       2.74125728       2.73374360       0.79903751      -0.48001425      -0.21458547
Si      -0.18116784       2.59926268       8.16821987       1.68231467       0.67462134       0.46603363
Si      -0.00575036       5.46092587      -0.09868885      -0.85857934      -1.11904943      -0.15316428
Si      -0.11878965       5.43064175       5.46276148       0.92427944      -0.18501199      -0.01527025
Si       0.13079530       7.98426670       2.65295279      -1.45505658       0.32030599       0.37256613
Si       0.05493315       8.12043871       8.15244954      -1.06308485       0.02248706       0.25986224
Si       1.23470709       1.26571434       1.32601667       0.58894326      -0.14565323       0.65735302
Si       1.26748602       1.35557545       6.79351170      -0.02157018      -0.52554579       0.54655779
Si       1.34032419       4.14382832       3.96096537      -0.29867449       0.08454770       1.20456943
Si       1.36794560       4.07061062       9.48645335      -0.25936634      -0.80285677      -0.52465822
Si       1.34020677       6.72408327       1.14245563       0.98292272       0.49744194       1.49453032
Si       1.34690171       6.85903950       6.79726494       0.32353522      -0.95365905      -0.97260130
Si       1.39954743       9.33628873       4.06453932       0.11530701       0.45490550      -0.09015925
Si       1.43857663       9.44142582       9.40825112      -0.24655577       1.42391298       0.21284950
Si       2.74152949      -0.11178842       2.76308695      -1.10782741       1.85010673       0.42521922
Si       2.78884825       0.11078076       8.12455200      -0.34030401      -0.04878900       0.18185281
Si       2.66983994       2.65158095       0.05228165      -0.40933916       0.61752133       0.17701714
Si       2.54611101       2.72666320       5.48911345       1.31853448       0.71352751      -0.95092892
Si       2.72568354       5.56272771       2.73194910       0.26263447      -0.27417846      -0.46227410
Si       2.70240932       5.45681125       8.09687620       0.47030058      -0.20850304       0.10979862
Si       2.67925602       8.25506113       0.04609509       0.58431624      -0.25461708       0.25617187
Si       2.82877297       8.19559124       5.47935373      -0.36746899      -0.02684593       0.74755418
Si       4.05234247       1.42350313       4.08318514      -0.70285656      -0.38395189       0.22012788
Si       4.10183292       1.48795040       9.54693550       0.28004213      -0.41904300      -0.76068813
Si       4.03052423       4.00719429       1.43572045       0.05682776       0.57447252       0.13579579
Si       4.17904078       4.11095504       6.68059793      -1.84810905      -0.75029454       1.15072052
Si       4.16085746       6.84027858       4.19219163      -0.33731492      -0.33010802      -1.18106923
Si       3.96423595       6.79044416       9.62811853       0.25354928       0.10964536      -0.71583024
Si       4.08269745       9.57382220       1.44898306       0.84881512      -0.97855624      -1.18391161
Si       4.18178493       9.63419936       6.79464101      -0.44889477      -0.52243538       0.17535614
Si       5.42676653       0.01283419      -0.04729066      -0.07597201       0.50793088       0.65565546
Si       5.45014732      -0.01185368       5.29708001       0.99367863       0.30354116       0.07906679
Si       5.47992778       2.72820496       2.77654551       0.13517685      -0.30824921      -0.42299567
Si       5.52760823       2.81447402       8.10535716      -0.86869562      -0.77111419       0.04073502
Si       5.35691302       5.42749018       0.06288726      -0.00236624       0.10790130       0.24840539
Si       5.46370125       5.32368852       5.32935538       0.48024921       0.70353998      -0.33219557
Si       5.47307419       8.10705312       2.69700928      -0.79624462       1.32422577       1.08315747
Si       5.34839983       8.19779071       8.27055173       0.39605998      -0.48526465      -0.62339072
Si       6.83671658       1.39657298       1.29273830      -0.04343338      -0.25827220       0.57453451
Si       6.81761535       1.36907026       6.77592407      -0.66905981      -0.66538252      -0.17370092
Si       6.91848420       4.01365671       4.11460726      -0.18260610      -0.35256675      -0.20046718
Si       6.71439452       4.12447377       9.53873404       0.42777177       0.12984587       0.44077097
Si       6.73185223       6.88741303       1.37576949       0.64182457      -1.59806608      -1.22386392
Si       6.63437969       6.77345879       6.70301255       0.04495093      -0.18731445       1.73922493
Si       6.96591758       9.47363144       3.94522949      -0.53049703       0.36693866       0.66080573
Si       6.81708982       9.62279797       9.46906247      -0.23585189      -1.23176943       0.21765241
Si       8.35641544       0.04003289       2.63145634      -1.14548376       0.20556437       0.14566901
Si       8.16244390       0.00474529       8.10924672       0.34687755       0.37427601      -0.10387565
Si       8.17606169       2.82235046      -0.01932381      -0.30044248      -0.24548947       0.24940707
Si       8.24381733       2.66121388       5.54963095      -0.50212376       0.41992428      -0.70425525
Si       8.05204473       5.43700320       2.68761961       0.88765528       0.46797294       0.16015146
Si       8.04994670       5.37030771       8.15022144      -0.42525286       1.07938400      -0.43494811
Si       8.12208731       8.17029551      -0.02024537      -0.23809411      -0.08839988      -0.31733128
Si       8.08959048       8.08276632       5.55019219       0.39995310       1.08681183      -0.85770329
Si       9.54317712       1.39832651       4.13085216       0.65270798      -1.05435624       0.19869973
Si       9.44532289       1.31976603       9.58238222      -0.39104759      -0.27778792      -0.10161218
Si       9.54630657       4.10163078       1.39844479      -0.46147539       0.69423806      -0.61525443
Si       9.44948497       4.04313717       6.90940849       0.43824155       0.50014665      -0.58749120
Si       9.41906215       6.81331583       4.14097664       0.31914785      -0.35675865      -0.92156655
Si       9.42429656       6.74899778       9.44829671       0.23935702       0.52303151      -0.00748641
Si       9.53660040       9.41333614       1.31831831       0.67659540      -0.39068039       0.61367515
Si       9.54970151       9.48175457       6.79816856      -0.66278491      -0.57721353       0.55101995
64
Lattice="10.862 0.0 0.0 0.0 10.862 0.0 0.0 0.0 10.862" Properties=species:S:1:pos:R:3:forces:R:3 pbc="T T T"
Si      -0.03693461       0.00830369       0.03837069       0.72810103      -0.00606011      -0.32325241
Si      -0.01100689       0.00871544       5.48873260      -0.67058830       0.84082206       0.86263665
Si      -0.00766185       2.77832429       2.74125273      -0.05633064      -0.50224989       0.42743663
Si       0.05971437       2.84841397       8.14991817      -0.51740723      -0.85697211      -0.71075038
Si      -0.12024007       5.34636588       0.09571879       1.04288600       0.49838961      -0.65069561
Si      -0.05078614       5.62136870       5.41344777       1.26559962      -1.14159993       0.08905565
Si       0.03485574       8.22569095       2.58147116      -0.41047362       0.18726722       0.73220666
Si      -0.00575089       8.17603052       8.10385948      -0.21019319      -0.07961440       1.42476120
Si       1.33297128       1.29855200       1.44843748      -0.42542045      -0.49688468       0.82093338
Si       1.39853813       1.43132701       6.77672630      -0.47128348      -0.55095752       0.68294714
Si       1.42346164       4.13219918       4.09780705      -0.84159162       0.54553149      -0.31321612
Si       1.40898875       3.98535753       9.56860128      -0.08859033       0.81911793       0.87020733
Si       1.43823055       6.77509807       1.40462214      -1.20047462       0.39515794      -1.28715805
Si       1.35607235       6.79501022       6.89675914       0.89410282      -0.15947432      -0.86255980
Si       1.21763128       9.53288526       4.19654914       1.21148148      -0.99001137      -1.52839128
Si       1.39314656       9.46117381       9.57433174      -1.02373867      -0.38532049       0.51496736
Si       2.74446483      -0.05123573       2.84010118      -0.33341519       0.57623973       0.47887222
Si       2.62383677      -0.10859087       8.18831796       0.35167948       0.98703768      -1.02772366
Si       2.63542803       2.48538634       0.05657984       1.00473271       0.92911933      -1.08225135
Si       2.72521389       2.75885946       5.43593643       0.37843745       0.86981901       0.67876769
Si       2.75007406       5.39605695       2.57399738       0.42923962      -0.67508738       1.31323263
Si       2.79416262       5.40855955       8.27172868      -0.94673207      -0.34237787      -0.85457314
Si       2.81736862       8.19977714       0.11106175      -0.48469266      -0.69358960      -0.72822738
Si       2.72810426       8.09570872       5.30659684      -0.36371308      -0.48340045       0.44644003
Si       4.12293519       1.38883313       4.30539808      -0.71165963      -0.82920010      -1.69077380
Si       4.03943462       1.29458878       9.37250350       0.71320490       0.42189198       0.69510596
Si       4.03152798       3.95595396       1.29562338       0.30432057      -0.83939370       0.32137871
Si       4.18955532       4.19700523       6.74527852      -1.73282694      -0.80997485       0.84416701
Si       4.17145714       6.64603583       3.97289890      -0.72914019       1.05734144      -0.03316938
Si       4.07118012       6.80767158       9.50367494       0.53400251       0.08674399       0.77781403
Si       4.11480369       9.53132202       1.43199621       0.94964396       0.40352416       0.29393762
Si       3.94808530       9.54871184       6.68713623       0.26327841      -0.90735037       0.53883524
Si       5.52090403       0.00762666      -0.05582862      -1.03415744      -1.09403636      -0.65044539
Si       5.42292767      -0.00334461       5.51054121       1.21997432       0.10530814       0.37587736
Si       5.40443081       2.53348807       2.78564080      -0.00997685       1.03939474      -1.14697582
Si       5.46669602       2.83476607       8.09036097      -0.43657801      -0.96836352       0.43307814
Si       5.40074964       5.34449524       0.01093338       0.19613759       1.04163014       0.16380091
Si       5.45813922       5.44546437       5.43183213       0.50437690       1.04897059      -0.10666636
Si       5.55434703       8.15485724       2.80147489      -1.03350675       0.34788996      -0.29876561
Si       5.31541225       8.03982602       7.95978178       0.54145622       0.92623396       0.39022714
Si       6.82476316       1.30669186       1.26902841      -0.71138237       0.83919774       0.47094788
Si       6.86665912       1.47236407       6.79095085      -0.76104109      -1.17159119       0.51871169
Si       6.60158298       4.08530053       4.06764501       1.57785463      -0.98633643      -0.28968849
Si       6.79199894       4.09567886       9.50584245      -0.17497963       0.49440671      -0.64367443
Si       6.76590621       6.89589764       1.34075140      -0.18563678      -1.58077358       0.02826973
Si       6.88011885       6.87318922       6.65174544      -0.71216724      -0.80402720       0.62951988
Si       6.85304879       9.53271931       4.12876111      -0.04066696       0.30836144       0.20141571
Si       6.79924586       9.32636713       9.41211744      -0.61262972       0.78325531      -0.07749057
Si       8.09215048       0.08289900       2.68208981       0.58249347      -0.50732524       0.94328284
Si       8.15342063       0.01333786       8.16350035      -1.08660606       0.71215441       0.94435368
Si       8.04818676       2.64264759      -0.15384631       1.37251260       0.17247013       0.88012499
Si       8.15581034       2.71315956       5.41689245      -0.16708377       1.26629044      -0.49046789
Si       8.01936877       5.47672186       2.78344625       0.30729675      -0.36094614      -0.58519287
Si       8.12085417       5.42063485       8.04645206      -0.00187658       0.03164766       0.22918252
Si       8.15051905       8.04532481      -0.04372369       0.15996073       1.19738415       0.16215956
Si       8.28973001       8.20690034       5.47197996       0.14392535       0.39390113      -0.88481860
Si       9.47657223       1.35288654       4.14514709       0.57376001       0.03488160      -1.04142789
Si       9.59497897       1.35061748       9.46247940      -0.34424460       0.42355985      -0.21150542
Si       9.36375493       3.98809020       1.39136418      -0.41927914       0.25375165       0.07403889
Si       9.55836991       4.12945746       6.69195370      -0.32309015      -0.16704887       0.32960583
Si       9.54613332       6.83710283       3.97330689      -0.48864886       0.61167205      -0.26756589
Si       9.43548310       6.73687211       9.47830545       1.20595728      -0.29331126      -0.34025315
Si       9.40667872       9.60940429       1.32025425       0.08422144      -1.24971300      -0.12876693
Si       9.45819534       9.60509541       6.92938392       1.22118607      -0.71737347      -1.33185220
64
Lattice="10.862 0.0 0.0 0.0 10.862 0.0 0.0 0.0 10.862" Properties=species:S:1:pos:R:3:forces:R:3 pbc="T T T"
Si      -0.02926636       0.03110149      -0.06938984      -0.17004893       0.33151477       0.72277017
Si      -0.04925169      -0.07311853       5.34557789       0.08695174       0.06558435      -0.09111825
Si       0.10803290       2.81624973       2.80314730      -0.12082894      -0.63729807      -1.26433314
Si      -0.09247568       2.64800789       8.15781069       0.47587365      -0.21618229      -1.22502751
Si       0.01307787       5.41155083      -0.07033231      -0.27104722       0.77146042       0.33825757
Si      -0.07057996       5.41337274       5.35770822       1.93189962       0.01989365       0.72378839
Si      -0.07814026       8.08143533       2.69962648      -0.12884309       0.05791509       0.67794309
Si       0.05841227       8.26792045       8.25990807       0.47935695      -0.88793135      -1.03161411
Si       1.41646380       1.42247049       1.30427040      -1.27759510      -0.76914613       0.87167094
Si       1.26543138       1.20027131       6.75758792      -0.32321150       1.54802345      -0.14304991
Si       1.49670072       4.22583036       3.96355823      -0.24199286       0.07298012       1.02048579
Si       1.24046528       4.04832898       9.37899158       1.57984200       0.11590650       0.78382155
Si       1.33963748       6.87122655       1.35332126       0.36894864      -0.71030994      -0.64455128
Si       1.39557421       6.73477900       6.87003644      -0.74568791       0.03890425       0.03377334
Si       1.32542913       9.47204427       3.99672690       0.22369854      -0.41425025       0.45831042
Si       1.41243819       9.59089758       9.53925126       0.45159350      -0.12481315       0.11358743
Si       2.70092503      -0.02115254       2.68036819      -0.11109552       0.18700553       0.03876393
Si       2.67770696       0.05806217       8.09384941       1.18072564      -1.02053749       0.40567804
Si       2.68564493       2.77145440       0.04023186      -0.52233843       0.51630011      -1.31885018
Si       2.61377171       2.72236708       5.47863727      -0.48401895       0.90325860       0.38680634
Si       2.86988433       5.65939167       2.69170851      -0.69077241      -1.45660646      -0.98984856
Si       2.86886990       5.40407255       8.19710998      -1.15397599      -0.44377123      -0.43628469
Si       2.80451226       8.15848613      -0.01059275      -1.43730409       0.03990567      -0.28073228
Si       2.67333754       8.13924927       5.52289469       0.08707936       0.39288787      -0.47689396
Si       3.89463073       1.40718415       4.16829467       0.98433222      -0.55103872      -1.15728969
Si       3.95466604       1.36933639       9.58332373       0.98924848      -0.07103734      -0.72510005
Si       4.08338067       4.01580295       1.32970922      -0.01657505       1.41330893       0.63058733
Si       4.15293578       4.08091868       6.72612251      -0.66049294      -0.12491835      -0.03317084
Si       4.08447163       6.86186742       4.14594133       0.77367526       0.63526961       0.36771229
Si       4.10647709       6.80958334       9.53459387       0.27544099      -0.10118066       0.01245996
Si       4.05605275       9.44329344       1.34952039       0.92678298       0.60456647       1.03705128
Si       4.20243417       9.43385731       6.80996133      -1.71561322       0.77412900      -0.02681900
Si       5.41005993       0.04692775       0.14145854      -0.10524653      -0.29204878      -1.23297907
Si       5.31763701      -0.02143628       5.37035788       0.58560467       0.69811576       0.40650660
Si       5.36669481       2.75479241       2.78649209       0.45617359      -0.82359286      -0.03916567
Si       5.36392652       2.63297804       8.02763955       0.47563000      -0.23189419       1.29042199
Si       5.41855836       5.48104556       0.06573693       0.31197723      -0.62711365      -0.30190846
Si       5.48716565       5.48760841       5.43005695      -0.39102848       0.26137514       0.08703092
Si       5.52041730       8.18122059       2.76657507      -1.12663568      -0.64713308      -0.55244183
Si       5.45005393       8.15457360       8.18661772       1.15742946      -0.61497213       0.28054141
Si       6.84076659       1.44103646       1.29423773      -0.59746566      -0.51552706       1.69046665
Si       6.81827878       1.23510239       6.78224181      -0.86581996       0.42577103      -0.50995998
Si       6.75231948       4.09636891       4.13342623       0.19728228      -0.85610910      -0.09813236
Si       6.68999987       4.07554113       9.46426373       0.68182440       0.06203318      -0.16473522
Si       6.81023179       6.68013204       1.51645612       0.26821470       0.22809256      -0.40946763
Si       6.88369582       6.82536007       6.72846523      -0.96334210      -0.22813635       1.09815973
Si       6.71673507       9.60528961       4.01878957       1.15843444       0.30168644       0.27287228
Si       6.80171860       9.43799754       9.66749911      -0.14327014       0.47628488      -0.38399912
Si       8.22210397      -0.07371714       2.60726485      -1.05139963       1.15477899       0.40616647
Si       8.11977914      -0.03144345       8.16505851      -0.06820897      -1.03082334       0.30260977
Si       8.16723851       2.76302615       0.03844324      -0.25283784       0.63155879      -1.09869924
Si       8.12497529       2.67789349       5.45786977       0.04622075      -0.71485254      -0.93736332
Si       8.19928564       5.30193066       2.81038729      -0.46870896       0.40625065      -0.30864198
Si       8.20130583       5.39425060       8.03759454      -0.10035322       0.00018076       0.55607996
Si       8.18326221       7.97556428       0.06626712      -0.66557838       0.32726103      -0.08609673
Si       8.05696205       8.23082725       5.41574192       0.94841044       0.47202121      -0.21859536
Si       9.57234712       1.32123053       3.94387369      -0.68220817       0.55187744       0.82198332
Si       9.38731046       1.38174914       9.44726677       0.26798609      -0.22079202       0.96323566
Si       9.52990245       4.08339978       1.38330794       0.69561569      -0.19773309      -0.14959530
Si       9.55693679       4.00767261       6.66777808      -0.31984581      -0.03053136       0.86079190
Si       9.40643810       6.71633998       4.16636243      -0.03566211       1.39664515      -0.76593935
Si       9.53003151       6.86727344       9.40798007      -0.20775523      -1.26544152       0.45620167
Si       9.47535904       9.42907636       1.32345508       0.91086280      -0.01231431      -0.68754382
Si       9.57285190       9.50024466       6.82755991      -0.86030708      -0.04471062      -0.32658834
64
Lattice="10.862 0.0 0.0 0.0 10.862 0.0 0.0 0.0 10.862" Properties=species:S:1:pos:R:3:forces:R:3 pbc="T T T"
Si       0.10445921       0.03321000       0.12837516      -0.78999443      -0.42118814      -1.46856085
Si       0.06169714       0.03983694       5.68653962      -1.11097511      -0.51327771      -1.78116695
Si      -0.03477155       2.78827086       2.66461945      -0.17062185      -0.75839035       0.25320591
Si       0.04959936       2.85207566       8.14130613       0.06123630      -0.19813127      -0.20121333
Si       0.08056919       5.45959055       0.00516260      -0.37085240       0.70910380       0.27644328
Si      -0.00756221       5.47935547       5.26866166      -0.02932360      -0.69329649       1.17392947
Si       0.09759150       8.21775884       2.78451434      -1.55271178       0.16127686       0.58121952
Si      -0.24403123       8.09818453       8.17705591       0.58693871       0.42652342      -0.92164767
Si       1.39216059       1.42765055       1.38475868       0.86440674       0.40873954       0.14732887
Si       1.40129139       1.33902729       6.87454481       0.23759337       1.48326990       0.48072997
Si       1.37501721       4.02436667       4.03600333      -0.04143973       0.76743836      -0.35270601
Si       1.44873292       4.22029215       9.45737644      -0.51669869      -0.90321280       0.38595406
Si       1.39497116       6.92241429       1.48022240       0.16368929      -1.05285537      -1.29445987
Si       1.30465839       6.83940882       6.71657256      -0.05512934       0.01125071       0.39664529
Si       1.30767153       9.65937698       4.12472884       1.37692630      -0.33556811       0.20492651
Si       1.22472273       9.40628300       9.45312952       0.21884384       0.46625087       0.55019823
Si       2.84801153       0.04695850       2.69818543      -1.08895616      -0.09491408       0.43913004
Si       2.63664244      -0.06698812       8.17748221       0.58644961      -0.00284896       0.70162928
Si       2.75244938       2.77820570      -0.08221382      -0.81065354      -0.54737863       0.18071225
Si       2.66863469       2.70099673       5.43745400       0.20691465       0.15995201       0.44360969
Si       2.75817581       5.47245437       2.68701667      -0.26413905      -0.81159855      -0.02299905
Si       2.74116552       5.44078211       8.08058632       0.12678337       1.12968769      -0.57017703
Si       2.70884105       8.12154596      -0.07935235      -0.05177493      -0.09821209       0.21709215
Si       2.80726510       8.13296539       5.38135217      -1.07284513       1.18329247       0.59527506
Si       4.06683775       1.45690389       4.10722222       1.09579053      -0.86706728      -0.01326566
Si       4.05033869       1.27236112       9.58544441       0.42448662       0.41872126      -0.74111061
Si       4.07801942       4.15324535       1.18414156      -1.25025469      -1.62580541       2.73366414
Si       4.09174416       4.08310989       6.76856231      -0.30114297       0.10162709      -0.72606086
Si       4.06678330       6.67366687       4.15678020      -0.22700479       0.01091326      -0.36426499
Si       4.14588148       6.73149107       9.49047494      -0.78754859       0.07146070      -0.03331601
Si       4.04493050       9.33828442       1.43516497       0.33869261       0.50784252      -0.51467106
Si       4.09616967       9.56212426       6.84578800      -0.47091285      -0.50625047      -0.57634228
Si       5.42417605      -0.06593310       0.10777048       0.15583256      -0.26834451      -0.16954694
Si       5.52596736      -0.00439064       5.54036971      -0.87936439      -0.11444533      -1.44115184
Si       5.43571587       2.75324145       2.65662560      -0.14158747      -0.16446496      -0.29845767
Si       5.41381751       2.84310632       8.15356129      -0.09671409      -1.79396087       0.46460551
Si       5.38424672       5.29984364      -0.03137195       2.24051421       2.04501241      -1.27711803
Si       5.48783628       5.38696849       5.35217731       0.50528872      -0.52190739       0.82855007
Si       5.38123226       7.91949139       2.77794466      -0.51276718       0.51860381      -0.73217619
Si       5.38098778       8.13577162       8.13944067       0.31999504       0.16636615       0.10177856
Si       6.87675402       1.30395713       1.39434070      -0.30093544      -0.07004308       0.16205553
Si       6.78316977       1.38066575       6.83313744       0.01031888       1.38163046      -0.25305628
Si       6.86899703       4.02659816       3.97605105      -0.10695623       0.55333394       0.01912187
Si       6.84715497       4.06865177       9.49747505      -0.10966168       0.21529546      -0.34258355
Si       6.73986339       6.70820706       1.37073813      -0.95740475       0.16698768      -0.84069912
Si       6.74129371       6.81635088       6.79803907      -0.11811141      -0.49464104      -0.24745735
Si       6.65002619       9.30960926       4.02614466       0.80128892       1.73824619       0.53239567
Si       6.74381412       9.48938319       9.45450988       0.73541516       0.16982825       0.95297515
Si       8.21127817      -0.09853640       2.82394545      -0.66324028       0.11321597      -0.03628756
Si       8.13293121       0.08645512       8.10151480      -0.14405926       0.02422811       1.71222081
Si       8.14779463       2.62993623      -0.10065109       0.16306296      -0.00338662       0.46145980
Si       8.17662500       2.75086047       5.43404970      -0.45874407      -1.06144906      -0.39649413
Si       8.13718722       5.44364315       2.53362047       0.88040991      -0.81506919       1.47409561
Si       8.15092572       5.48915668       8.10997804      -0.48716968      -0.44044643       0.25352313
Si       8.12507938       8.11461787       0.18708351      -0.51340762       0.74005096      -1.47442843
Si       8.05468871       8.08822267       5.38202195       0.36016651       0.66108756       0.55585601
Si       9.58882437       1.32673572       4.12805477       0.03126082       0.23593484       0.29098828
Si       9.63370114       1.41123013       9.45115077      -0.11243818      -0.81631076       0.37734917
Si       9.48477226       4.05449490       1.21134154       0.23410215       0.05360617       0.10894048
Si       9.44033624       4.08983727       6.75664868       1.27494315       0.81839641      -0.09075605
Si       9.41366862       6.78686893       4.05878494       0.60372667       0.20485550      -1.19603079
Si       9.36264461       6.77523809       9.58749487       0.78336925      -0.29191801       0.48242488
Si       9.54804513       9.49916863       1.39014279       0.31352292       0.09526386       0.31072340
Si       9.32377665       9.61133822       6.77620458       0.86357159      -1.63291122      -0.47255141
64
Lattice="10.862 0.0 0.0 0.0 10.862 0.0 0.0 0.0 10.862" Properties=species:S:1:pos:R:3:forces:R:3 pbc="T T T"
Si       0.03585266       0.03688238      -0.03999193       0.22306645       0.97094733       0.30931754
Si      -0.01166947      -0.01166883       5.44017022      -0.39164755      -0.04950694       0.61741962
Si      -0.03483706       2.72754227       2.70381608       1.54709139       0.27289128      -0.33142413
Si      -0.02533954       2.79116208       8.24478414       0.20017334      -0.18002799      -0.00483015
Si      -0.04219484       5.39985713       0.10311113       0.54725413       0.53001392      -0.40432975
Si      -0.03099735       5.35611142       5.48044859       0.18905521       0.73064855      -0.36233759
Si      -0.00165072       8.15564397       2.64647820      -0.48060516       0.24742615       0.42890764
Si       0.08045637       7.97179611       8.09915743      -0.47857266       1.13078284       0.23390146
Si       1.46811869       1.45909410       1.23051685      -1.15823194      -0.23048565       0.69903318
Si       1.30052832       1.35319363       6.88470576      -0.39655973       0.36385233      -0.49509705
Si       1.35006936       3.92373283       4.30334017      -0.00175825       0.47826053      -1.75627339
Si       1.44575836       4.14910163       9.60874572      -0.99897979       0.06780324      -0.73456453
Si       1.38152212       6.91942550       1.26950700       0.19582506      -1.27734828       0.48614489
Si       1.43409911       6.74479802       6.68520256       0.16617076       0.37866714      -0.27987431
Si       1.29694161       9.49274119       4.08994686       0.46676676       0.03660051      -0.42898979
Si       1.26848230       9.48119248       9.56761098       1.04574297      -0.74109116      -1.20970090
Si       2.62950468       0.07482788       2.70343820      -0.17600433      -0.40188321       0.26815494
Si       2.63199166       0.01167645       8.14814786       0.40852613      -0.78445751       0.33483499
Si       2.82109102       2.73655067      -0.10050335      -0.05285378       0.39201402       0.47514283
Si       2.78367199       2.63878735       5.57956846       0.22963661      -0.22699432      -0.04962803
Si       2.61533691       5.32282263       2.69103571      -0.22587918       0.11509503      -0.17936861
Si       2.71703276       5.51346899       8.15947172       0.26518669      -0.70263037      -0.01437552
Si       2.84340938       8.21557721      -0.03223504      -0.57958430       0.71347960       0.57549330
Si       2.83122058       8.21944602       5.35639945      -1.10480201      -0.34168194       0.27149351
Si       4.07228600       1.34023916       4.00592352      -0.61921034       0.34891060       0.72535500
Si       4.05613498       1.37632491       9.44495379       0.24308505      -0.37672019      -0.55788465
Si       4.13911706       4.06524948       1.26106583      -0.31192550       0.51014861       0.70294393
Si       4.14896468       4.07205528       6.88254259      -0.25222980      -0.08128557       0.03465568
Si       3.95546029       6.75101855       3.99144068       0.59838696      -0.01088220      -0.47557137
Si       4.08810464       6.87859133       9.44504322       0.38556160      -0.28668975      -0.28950354
Si       4.09956646       9.67101951       1.42649398      -0.43058178      -1.61470872       0.19084502
Si       4.08767897       9.61054001       6.70218613      -0.23083820       0.15805217       0.40991475
Si       5.32199833       0.05061173      -0.00190192       0.77350282       0.29094827      -0.26225248
Si       5.46636883       0.04729315       5.32513090       0.19620367      -0.22881433       0.47070795
Si       5.39301481       2.67252637       2.69741812      -0.01097458       0.23148141      -0.72062279
Si       5.56210900       2.65897938       8.18725945      -0.37549357       0.37627038      -0.26069957
Si       5.45588657       5.44182331      -0.13551488      -0.24697896       0.47197802       0.98114177
Si       5.29951820       5.34813402       5.28148315       0.73540836       0.46412868       1.13878126
Si       5.43695965       8.08811958       2.67967137      -0.27608553       0.47958578      -0.06318733
Si       5.39214326       8.18042105       7.99866535       0.58291619       0.01600938       0.24640682
Si       6.73998452       1.32916977       1.35961900       0.09665607      -0.14294221       0.32069343
Si       6.83327301       1.25683898       6.83374758       0.70143708       0.07805830      -0.43415540
Si       6.70376493       3.94757502       4.07219138       0.59174143       0.24999751       0.37872347
Si       6.83691179       4.03318202       9.59391797       0.33568560       0.41246683      -1.09216371
Si       6.82461795       6.72005121       1.36769298      -0.34416210       0.39095874      -0.55364575
Si       6.80647865       6.74105790       6.69476882      -0.79293473      -0.11923385      -0.00276218
Si       6.80563324       9.49494918       4.01968404       0.03454067      -0.21731950      -0.05853199
Si       6.65027840       9.53384461       9.52988954       0.33752789      -1.01489706       0.09169734
Si       8.18075073       0.10431681       2.78839480      -0.40817142      -0.94156957      -1.03953098
Si       8.17766049      -0.15366253       8.26129992      -0.26247153       0.74952156      -0.61455450
Si       8.10042242       2.71019923       0.11260526       0.64884467      -0.22696161      -0.19293856
Si       8.20989368       2.68843470       5.42840073      -0.49109980      -0.15352105       0.32623789
Si       8.04340136       5.41670592       2.83376111       0.50369428      -0.35291346      -0.26104098
Si       8.15000844       5.59848792       8.27441092      -1.02946529      -2.18401298      -1.55163478
Si       8.13868945       8.17450443       0.02885492       0.23236339       0.30620142      -0.15163393
Si       8.14868434       8.10476612       5.35123749      -0.53237940       0.52300862       0.61636194
Si       9.59143570       1.38710468       4.01705064      -0.39913987      -0.23215550       1.13966073
Si       9.45685160       1.34830667       9.55912822       0.05673256       0.41485795      -0.25931794
Si       9.45140531       4.09439830       1.43508962      -0.28475104       0.12227122       0.38696052
Si       9.48137759       4.09634578       6.82415296      -0.62378195       0.24290540       0.91323230
Si       9.48339280       6.77840903       4.10476478       0.90933529      -0.47178233      -0.82556711
Si       9.53705153       6.74583066       9.52207761       0.67732598       1.16602409       1.10564180
Si       9.57644046       9.66579108       1.31376500      -1.11031648      -1.04226101       0.88136192
Si       9.44388093       9.38268270       6.79476082       0.95302547       0.20251079       0.15682583
64
Lattice="10.862 0.0 0.0 0.0 10.862 0.0 0.0 0.0 10.862" Properties=species:S:1:pos:R:3:forces:R:3 pbc="T T T"
Si       0.03755687       0.03202649      -0.09698374       0.78860367      -1.26018075      -0.03446289
Si       0.12623522       0.05645056       5.47143411      -0.61230244       0.09264430       0.16500748
Si       0.00716850       2.70549336       2.66810160       0.56701710       0.31868693       0.12541377
Si      -0.03701759       2.66551905       8.26826235       0.87091678       0.59541943      -1.49300725
Si      -0.08420416       5.48657758      -0.11393270       0.46529296       0.12525385       0.02333642
Si      -0.07478311       5.34773301       5.35648481      -0.58474888       0.79533628       0.25990196
Si      -0.05813409       8.16645882       2.67998168       0.09204940      -0.30514145       0.30485875
Si      -0.07028320       8.18631217       8.07456153       0.01591828      -0.77572966       0.84851784
Si       1.37280059       1.31776415       1.32688018       0.17403431      -0.15918001       0.49481048
Si       1.52088549       1.36632098       6.85205679      -0.80088933       0.12579901       0.53914961
Si       1.36049786       4.11456276       4.05881701       0.31601705      -0.49072328      -0.69006889
Si       1.31139074       4.04614681       9.66992231       0.62248814      -0.23194494      -1.16304245
Si       1.23000181       6.80013011       1.19753049       0.76987705       1.13322081       0.76745226
Si       1.23449161       6.73450627       6.81668770       0.14229821      -0.03213625      -0.76888158
Si       1.38403085       9.46378112       4.17573755      -0.08217241      -0.14563080      -1.03173286
Si       1.46778219       9.33196117       9.42915743      -1.30188059       1.53380828       0.22352660
Si       2.74256747      -0.08486960       2.69814902      -0.12178860       0.39948178       0.49638502
Si       2.80683107      -0.04953104       8.26601351       0.17421989       0.28216028      -0.68202069
Si       2.78549485       2.72725139       0.11981493      -0.49627676       0.38121945      -0.22803147
Si       2.75212600       2.76325978       5.42950952      -0.11830960       0.42391454       0.35034829
Si       2.62834843       5.51341295       2.55642938       0.07160856      -0.19406771       0.98618663
Si       2.62258484       5.44822705       8.18655104       0.07431419      -0.29690472       0.47647769
Si       2.78220009       8.24444038       0.02902706      -0.02867556      -1.60440064       0.29857793
Si       2.72544763       8.11084938       5.53484298      -0.66170252      -0.47502610      -0.04137828
Si       4.05935338       1.36728371       4.12780579      -0.39631919       0.54234092      -1.42762915
Si       4.09722136       1.48354685       9.55646180       0.08161475      -1.45929930       0.10234236
Si       4.12387353       4.16553941       1.37034622      -0.84340798      -1.01890537       1.14250901
Si       4.09175612       4.13722620       6.86880520      -0.83390641      -0.57136400      -0.28661766
Si       3.97925103       6.75267318       4.11993793       0.05236508       0.47235157      -1.05769834
Si       4.05709104       6.77921761       9.52446536       0.19921368      -0.00724647       0.16498884
Si       4.18863016       9.45183801       1.40353288      -0.10473298       0.69877211       0.12502559
Si       4.11058541       9.40469817       6.83899696       0.18987682       1.27063682      -0.04488694
Si       5.49038220       0.03334806       0.04981791      -0.11399592       0.23348315      -0.29141370
Si       5.34781197       0.09053682       5.44208727       1.30303463      -1.55210320       0.48591877
Si       5.45291767       2.80574212       2.76670313      -0.00795364      -0.85809046      -0.11303239
Si       5.39902161       2.62310608       8.04715756       0.01416984       0.71722672       0.48342650
Si       5.42265429       5.34298899       0.04456974       0.79483489       1.55137257      -1.42321740
Si       5.31327702       5.38618991       5.39649696       0.85921875       0.82092550       0.57830388
Si       5.49538981       8.16223588       2.83460356      -0.19254177      -0.11254205       0.58914403
Si       5.49262152       8.15467431       8.18857811      -0.38360350      -0.33598057       0.49727543
Si       6.88735773       1.34215509       1.42413168      -0.72327768       0.53741569       0.20441685
Si       6.82153978       1.38019881       6.76484521      -0.38124254       0.10174161      -1.06009924
Si       6.78783161       4.19232715       4.08382296      -0.27728849      -0.59539897      -0.28470633
Si       6.68415013       3.93722563       9.46950724       0.67309772       0.13200666       0.74306372
Si       6.72040793       6.91187869       1.32494816       0.47337489      -0.92675380      -0.21043921
Si       6.70372334       6.75461770       6.84283646       0.63997449      -0.06968537      -0.80129737
Si       6.95117751       9.57985572       4.12998679      -1.45138869      -0.67356459       0.96068611
Si       6.84166947       9.56351483       9.48071791      -0.39225089       0.15255911       0.10441574
Si       8.19015850      -0.08898575       2.68563615       0.99653197       0.68804209      -0.27706175
Si       8.12003982       0.09031123       8.11289688       0.52982137      -0.49792018       0.42352548
Si       8.20321658       2.68530679       0.03808160      -0.28248020       0.49410140      -0.27722784
Si       8.11236421       2.73398628       5.29251665      -0.12110365      -0.88638424       0.12511622
Si       8.07407469       5.39598350       2.60537574       0.06599783       0.41256058      -0.68837681
Si       8.04516415       5.31175870       8.14819337       0.21794024       0.02608852      -0.47399116
Si       8.18196117       8.21931309      -0.03603490      -0.91661706      -1.15367109      -0.52342699
Si       8.25395224       8.17663304       5.58276691      -1.55769001      -1.26585345      -1.29815848
Si       9.57199585       1.34219140       4.03328654      -0.35388102      -0.33296248      -0.02322477
Si       9.51969568       1.33841302       9.53043448      -0.79196501      -0.10391025      -0.12598388
Si       9.63793678       4.13956935       1.27313869      -1.42152913      -0.75750809       0.87042345
Si       9.41454653       3.93231730       6.69948415       0.96954829       0.79897611       1.24467227
Si       9.31474037       6.74968180       3.96592487       1.41230529       0.57207261       0.89713218
Si       9.40016783       6.73893167       9.46050832      -0.18860415       0.74881488      -0.87616269
Si       9.51862790       9.49592895       1.19639498       0.91794297       0.83561177       1.35234463
Si       9.48364273       9.57725545       6.79119580       1.00900751       1.13616485       0.24259676
64
Lattice="10.862 0.0 0.0 0.0 10.862 0.0 0.0 0.0 10.862" Properties=species:S:1:pos:R:3:forces:R:3 pbc="T T T"
Si       0.12804475       0.01448676       0.01579954      -1.01470580      -0.43597019      -0.51004516
Si       0.03188086      -0.07370661       5.37716998       0.12312894       0.10957403       1.16767639
Si      -0.00764111       2.70080089       2.77269342       0.46913328      -0.29529908      -0.32477942
Si      -0.12704867       2.82798598       8.22366917       0.14322470       0.05855333      -1.47085071
Si       0.06975042       5.36385069       0.02037692      -0.27811279      -0.17143045      -0.68014292
Si       0.01657314       5.48604581       5.55953418      -1.25363017      -0.59269321      -0.25879834
Si       0.07433606       8.04855845       2.70397833      -0.50120297       0.33289573       0.30246462
Si       0.10313849       8.25221278       8.12984378      -1.60982711      -0.99543420      -0.76209877
Si       1.45950205       1.32150147       1.36999495      -1.04396935       1.16682705      -0.16302515
Si       1.26521823       1.48691470       6.82491275      -0.20567717      -0.64518324      -0.32874877
Si       1.31959855       4.11290019       4.12878847       0.01981869      -0.11544447       0.16982834
Si       1.41000032       4.03385276       9.41111333      -0.04602833       0.21587885       1.15185995
Si       1.44121363       6.70317167       1.29161206      -0.71038455      -0.10083377       1.07451686
Si       1.39319302       6.80220528       6.84003341       0.79247879       0.76039113      -0.74231375
Si       1.44222086       9.53751000       4.00717799      -0.82624911      -0.32812928      -0.40044982
Si       1.41721915       9.37212985       9.53471833      -0.09377075       1.68135954       0.56234957
Si       2.73401374       0.02596540       2.65594354       1.27682958      -0.68251775       0.75153298
Si       2.57572943       0.02258904       8.17314481       0.31822260      -0.48256070      -0.94249457
Si       2.74757602       2.60238456      -0.09001262      -0.05377208       1.08557133       0.34114433
Si       2.75616700       2.73980881       5.44395675      -0.87418984      -0.26584834      -0.14085163
Si       2.70760192       5.42481074       2.77634014       0.37798742       0.01240398      -0.35293763
Si       2.76473756       5.42992826       8.14137878       0.34009968       0.77002851       0.51209864
Si       2.69847341       8.14108583       0.09701819       0.55765729      -0.20448058      -0.84562697
Si       2.80057857       8.24485769       5.29617522      -0.13184989      -0.96429936       1.36456556
Si       4.10245714       1.37824810       4.09028411      -0.66241501      -0.63916320       0.19161783
Si       4.02678898       1.30590492       9.37624066       0.65337204       0.42244468      -0.24537157
Si       4.04403804       4.07348019       1.33136597      -1.01183930      -0.14197855       0.13069911
Si       4.06358643       4.03984976       6.80607643      -0.27927221       0.64539596      -0.46202574
Si       4.15507075       6.82890550       4.04130791       0.03132773      -0.52694277      -0.19602135
Si       4.11001438       6.99925373       9.48878416      -1.00707678      -2.35673850       0.94662487
Si       4.09917921       9.44073630       1.31669611       0.34306938       1.27991569       0.60813963
Si       4.08250954       9.61319055       6.72712816      -0.55751809      -0.12209594       0.53614903
Si       5.34942966       0.13807927      -0.01305644       1.03031389      -1.31240762       0.30760309
Si       5.51059487       0.02670826       5.41382968      -0.98917399       0.49030988       0.25186578
Si       5.28643958       2.75876944       2.74882689       1.71572343       0.27887573      -0.15144003
Si       5.41768908       2.63532214       7.92371200      -0.34098871       0.43902998       2.19599494
Si       5.35651132       5.42886879       0.04490460       0.45128377       1.01655257      -0.66157195
Si       5.39533832       5.32199505       5.41986558       0.65777825       0.56938360      -0.31326594
Si       5.53968940       8.17890708       2.68773651      -0.03861317      -0.19830294      -0.10113201
Si       5.37407900       8.19527257       8.13105628       0.84430104       1.12947415      -0.62700386
Si       6.77204478       1.49246984       1.38487599      -0.47958872      -0.10420059      -0.45575990
Si       6.80429744       1.28815230       6.83033158       0.64188369      -0.40729216      -0.59757204
Si       6.90094372       3.93091403       4.13250414      -1.98229015      -0.27054968       0.22206748
Si       6.61773532       4.03682234       9.49235230       0.34745837       0.13297160      -0.33121950
Si       6.88945951       6.74632433       1.34788471      -0.30195249      -0.43020960       0.34896529
Si       6.65251999       6.82505288       6.76191881       0.20003921      -0.37207452       0.01993733
Si       6.78772451       9.65508540       4.05193929       0.54352321      -0.85350051      -0.87236284
Si       6.78773811       9.36781044       9.65677972      -0.40774577       1.30514492      -0.57977885
Si       8.14837620       0.06467265       2.60744016       0.37551245      -0.49104934       0.24156680
Si       8.09276872       0.02570817       8.27239274       0.20163667      -0.82036558       0.18625290
Si       8.13667762       2.83146490      -0.02625756      -0.09915063      -0.57983710      -0.00435462
Si       8.17424317       2.49845368       5.41099578       0.03161354       0.62952121       0.54107525
Si       8.09135852       5.30430228       2.84285020       1.26385467       1.56272149      -0.75185112
Si       7.99148870       5.45167765       8.15201842       0.03142230       0.20439323       0.13204076
Si       8.28478935       8.05244182      -0.01612747       0.13977688      -0.38267912      -0.14626354
Si       8.00756992       8.25913796       5.47632572       0.13575987      -0.65774862      -0.35923680
Si       9.55376575       1.24270100       4.09693555       0.01694914       0.19696091      -1.03750078
Si       9.52503444       1.41538777       9.49258593      -0.20616695      -0.69523889       1.27861384
Si       9.51955074       4.05864714       1.40866658      -0.03039362       0.31936701       0.01586297
Si       9.25533943       4.05026937       6.79970704       1.40808226       0.30463092      -0.20820428
Si       9.43300788       6.84710750       4.21788207       0.42358607      -0.47535372      -0.72011795
Si       9.62990334       6.70673764       9.38275419      -0.30674941       0.17878313       0.39911551
Si       9.56893287       9.45331082       1.33335430       0.22426102       0.46093502       0.22011013
Si       9.37523681       9.54600515       6.78576989       1.21319505       0.35755840       0.57287847
64
Lattice="10.862 0.0 0.0 0.0 10.862 0.0 0.0 0.0 10.862" Properties=species:S:1:pos:R:3:forces:R:3 pbc="T T T"
Si       0.01517834      -0.10139591      -0.00242464      -0.06763383       0.54068326      -0.33777720
Si      -0.05179862       0.08817574       5.36406348       0.37802413      -0.45747765       1.04951375
Si       0.00066062       2.78852206       2.65657453      -0.12059594      -0.63227866      -0.20971266
Si       0.03686031       2.67648890       8.30613102      -0.08488678      -0.02101388      -1.73286970
Si      -0.10340472       5.37733757      -0.04922877       1.34157542       0.15767540      -0.27778839
Si       0.00286867       5.47339397       5.42381970      -0.87436511      -0.31065094      -0.17881728
Si       0.09604233       8.01814431       2.79436757      -0.05113299       0.67944913      -0.40781649
Si      -0.01660431       8.10883851       8.09090316      -1.12389230       1.23966898       1.33713283
Si       1.39311004       1.29095704       1.32778698      -0.91217385      -0.02089539       0.67144773
Si       1.37979790       1.36975184       6.83049070      -1.13118794      -0.28677684       0.02697959
Si       1.31761164       4.08961163       4.07161807       0.43608422       0.00649734       0.12544824
Si       1.42096837       3.99523457       9.51152603      -0.05067523       1.28231242       0.58632043
Si       1.36495194       6.69230237       1.28352009       0.24831482       0.46268491       0.05858539
Si       1.21712761       6.90067606       6.78707997       1.90603992      -1.52753785      -0.94021079
Si       1.36708098       9.55443950       4.15005626      -0.67529397      -0.09040447      -0.94267490
Si       1.38695434       9.42486950       9.45662458      -0.36981969       0.67362363      -0.27102659
Si       2.71069756      -0.01968486       2.76062273       0.32379818       0.22386278      -0.36635656
Si       2.71077048      -0.02931785       8.07407654       0.52863525       0.03160015       0.79825221
Si       2.70044528       2.64635554       0.06158797       0.53836209       0.30746002      -0.66444329
Si       2.63308684       2.75451163       5.53544603       0.76720664       0.13073887      -1.09356293
Si       2.74265870       5.31861033       2.64067244       0.07585653       0.72935505       0.65791178
Si       2.68888313       5.52116656       8.14053231      -0.50413631      -0.81962296      -0.71929743
Si       2.75941636       8.26003047       0.01027720      -0.14402560      -1.33916661       0.26281156
Si       2.63856467       8.16565754       5.38706332       0.71553422      -0.42960083       1.09334346
Si       4.04707409       1.41298599       4.06439671      -0.14072687      -0.04035216       0.56677517
Si       4.08864863       1.38703636       9.52465624      -0.27908548      -0.35113222      -0.67382573
Si       4.11911305       3.95784105       1.35165033       0.17299784       0.28624049       0.09444907
Si       4.10172116       4.07145657       6.79646117      -0.40675145       0.46051185       0.34392987
Si       4.04455833       6.77629042       4.14479016      -0.57400195       0.34908044      -1.73893599
Si       4.01470675       6.79877706       9.47729869       0.60588133       0.42139416       0.85494267
Si       4.14383224       9.57401133       1.35103686      -1.11070172      -0.54483084       0.98457144
Si       4.08569688       9.45497376       6.77291093      -0.01137613       0.46278247      -0.44176178
Si       5.37864580       0.04685594       0.07422472       1.31594812       0.46722756      -1.18129058
Si       5.45766566       0.03734065       5.40970919      -0.90056958       0.41787546       0.48159401
Si       5.51234745       2.69761064       2.74590382       0.19059211      -0.15129480       0.07266434
Si       5.49280218       2.75349932       8.16872052       0.13570617       0.12390258       0.18234056
Si       5.39049789       5.41096048       0.01247144      -0.58907661       0.83704518       0.30244088
Si       5.38053602       5.41624797       5.35511207       0.62958152       0.16623632       1.44187458
Si       5.41595951       8.25494370       2.77616382       0.03461657      -1.15482284      -0.08689386
Si       5.40611645       8.21322353       8.21315098       0.31078807      -0.66063281      -0.32497532
Si       6.88490108       1.31849156       1.35826669      -0.80778080       0.08427932       0.19823954
Si       6.83726132       1.43667017       6.68895818      -0.26323610      -0.61511714       1.08736039
Si       6.82339772       4.06904696       4.17670055       0.05710823      -0.09043286      -0.93162715
Si       6.80646865       4.17088092       9.63056963      -0.09819178      -1.16789596      -0.98852197
Si       6.75839518       6.81442049       1.34622510      -0.25434064       0.66972504       0.09159685
Si       6.74284351       6.83291031       6.79862662      -0.27604049      -0.72448598       0.29207384
Si       6.76977291       9.59780758       4.10200311       0.84697693      -0.89237536      -0.12001588
Si       6.80321188       9.56017572       9.50666845      -0.11758764       0.41188394       0.47704676
Si       8.18060494      -0.13309913       2.61014447      -0.31018065       1.01426126       1.17126398
Si       8.18760982       0.03275935       8.12281858      -0.76904734      -0.20397273      -0.66706999
Si       8.12917405       2.68316849      -0.01265511       0.46967941       0.33918996       0.00048407
Si       8.24998542       2.65021361       5.36442136      -0.30658294       0.46691751       0.05362139
Si       8.06168448       5.45295567       2.71387220      -0.08026902      -0.31315488      -0.10224313
Si       8.10901092       5.38919945       8.17567132       0.45709341       0.25009945      -0.94047150
Si       8.19828459       8.25637978       0.03692429      -0.35575509      -1.19317328      -0.51342491
Si       8.13577453       8.12747814       5.47320950      -0.48457961       0.20410738      -0.88457703
Si       9.49427914       1.33240437       3.96194969       0.06050098       0.07249499      -0.87966512
Si       9.49681411       1.32947611       9.47552362       0.18034056      -0.30565550       1.15414189
Si       9.43396093       4.14807015       1.32933435      -0.16261956      -0.87249208       0.44519268
Si       9.55245445       3.95387154       6.75524520       0.24689438       0.89889977       0.91149673
Si       9.41649294       6.78623826       4.01404147       0.50257716      -0.11375623       0.85894347
Si       9.50953479       6.76808198       9.47908196      -0.63024583       0.54915942      -0.05610496
Si       9.58532016       9.44978078       1.43481328       0.98810745      -0.77177739      -0.32969872
Si       9.47691196       9.47988578       6.74174033       0.57374521       0.68385461       0.26866669
64
Lattice="10.862 0.0 0.0 0.0 10.862 0.0 0.0 0.0 10.862" Properties=species:S:1:pos:R:3:forces:R:3 pbc="T T T"
Si      -0.03902978      -0.03324498      -0.02899960       0.08024805      -0.17300407       0.93044309
Si       0.10537792       0.00105936       5.49354494      -0.85813756      -0.82740097      -0.18612050
Si       0.08426173       2.75137732       2.72028318      -0.86084014       0.33710808       0.48613041
Si      -0.14731108       2.78432230       8.19202914       1.11675424      -0.93235940       0.31061928
Si      -0.06649715       5.50375779      -0.01008485       0.12553236      -0.77325607      -0.80487769
Si       0.08976073       5.48979820       5.40890368      -0.58004868      -0.97025540      -0.32854624
Si       0.20756738       8.11526166       2.62183510      -1.64038906       1.17509655       1.36114504
Si      -0.04885729       8.33837167       8.19848965      -0.28671455      -0.73900643      -0.25247968
Si       1.25304208       1.36163120       1.40514560       0.99714494      -1.02265792      -0.51411396
Si       1.27355256       1.38319845       6.82193158       1.11483212       0.62326968       1.00225317
Si       1.41609914       4.06640986       4.08096625       0.37858207      -0.14324597       0.45249225
Si       1.35499616       4.03449306       9.53569366      -0.19959282       0.60885661      -0.11948777
Si       1.29853549       6.70003254       1.32137394       1.91800859      -0.03420678      -0.37903445
Si       1.20145852       6.88921742       6.76841838       1.15068049       0.45033670       1.17354212
Si       1.42303639       9.54901130       4.10555436       0.01541099      -0.93234614       0.12784551
Si       1.44231807       9.52496120       9.56454821      -0.20762463      -0.22771691      -0.04217825
Si       2.72848305      -0.03425930       2.73027928      -0.22336294      -0.18538210      -1.61639637
Si       2.74821839       0.05124483       8.23892249      -0.48550882       0.48837785      -0.45278613
Si       2.66430893       2.67130243       0.07374201       0.42997434       0.18889097      -0.04860665
Si       2.77088221       2.61640151       5.41063319      -0.21644067       0.15330785      -0.19935640
Si       2.72214038       5.44859382       2.74765947      -0.03375433       0.10100517      -0.28621751
Si       2.67405389       5.49784694       8.12571186      -1.20559905      -0.12942553      -0.01114906
Si       2.77732674       8.02536938      -0.04274122      -1.00397014      -0.49475012      -0.41782864
Si       2.72851898       8.17965475       5.52698227      -0.30472269       0.02041047      -0.43102389
Si       4.15161606       1.29520411       3.86826776      -0.29428804       0.82006746       1.46493584
Si       4.13822693       1.34469128       9.61529985      -0.83467858       0.09883735      -0.21786000
Si       4.06396442       4.14371005       1.31601279       0.01277266       0.24451859      -0.52751593
Si       3.95819492       4.13937419       6.81458581       0.58095396      -1.46331189      -0.07253404
Si       4.03820254       6.86195024       4.08502853       0.03173256      -0.46269588       0.23847923
Si       4.13956945       6.78162897       9.34945900      -0.89068624      -0.18770896       1.07770212
Si       4.03603254       9.43570599       1.17434580       0.25019971       0.05764153       1.90240875
Si       4.03912506       9.60478716       6.80937511       0.14941270      -0.02344652       0.03061492
Si       5.43730811      -0.15049673      -0.09307571       0.12877236       1.83709783       1.62247705
Si       5.39130753       0.05103433       5.39900954       0.72691033      -0.28256990       0.12368528
Si       5.41004765       2.78137066       2.64384089       0.28679119       0.65176983       0.53395874
Si       5.37705118       2.65337243       8.19330752      -0.40064333       1.19016471      -0.48313053
Si       5.49613822       5.52586195      -0.12929551      -0.72884303      -1.02662819       0.67405835
Si       5.34000644       5.40709034       5.46484284       0.45370931       0.49279124      -0.49260819
Si       5.41086153       8.04408479       2.63127462       0.25348362       0.99916877       0.25256080
Si       5.35623229       8.20111336       8.15511739       1.11297391       0.95794137      -0.74220020
Si       6.73422252       1.40462483       1.41776145       1.04052443      -0.91687715      -1.15719359
Si       6.75556006       1.42583119       6.82739343       0.65784067      -0.65641537      -0.58049739
Si       6.80935859       4.09887477       4.10737764      -0.28525186      -0.76212057       0.21182781
Si       6.72842417       4.06529932       9.45315831       0.72287133      -0.42249115       0.13994069
Si       6.79691399       6.58416152       1.42839447       0.68491895       1.06381732      -0.25451168
Si       6.68188880       6.81997161       6.80047868       0.19409008      -0.35263421      -0.16031881
Si       6.78867528       9.45612091       4.10857941      -0.05495357       0.21382880      -0.64531369
Si       6.79772940       9.48375936       9.55058936       0.61650285      -1.16070216      -0.87120209
Si       8.23923836       0.06243889       2.78170891      -1.08018289      -0.15650641       0.29622973
Si       8.12209885      -0.03013368       8.19976137      -0.54103696       0.53971495      -0.65668152
Si       8.19125500       2.76613268      -0.02544882      -0.96965997      -0.18868552       0.61908021
Si       8.25673290       2.68547343       5.38317365      -0.47698706       0.16187285       0.61520947
Si       8.25914188       5.25312370       2.72986838      -0.81685207       1.27835909       0.45081790
Si       8.04902635       5.38739971       8.06369149       0.76274710       0.71315080       0.42278161
Si       8.12371585       8.12700162       0.07453514      -0.43293202      -0.10472062       0.83224906
Si       8.12427556       8.02455789       5.40601231       0.43007903       0.30655106      -0.24676652
Si       9.69359876       1.31004748       4.12018262      -0.68989514       0.68384300      -0.45693844
Si       9.44269627       1.31262828       9.55612810       0.29620781       0.33645475      -0.51354610
Si       9.57488209       4.09589672       1.35586327       0.23806666      -1.09582696      -0.61298212
Si       9.58801589       4.11599948       6.76912017      -1.08895390       0.52249880      -0.67953068
Si       9.61670995       6.73132824       3.97799408      -0.38013642       0.60249819       0.12494301
Si       9.43820784       6.87582749       9.53597671      -0.00369360      -0.49389475      -1.10648513
Si       9.47776378       9.48784937       1.47575096       0.64240582      -0.19451705      -0.93331768
Si       9.39973962       9.55548912       6.72973034       0.47524557      -0.38248118       0.02290606
64
Lattice="10.862 0.0 0.0 0.0 10.862 0.0 0.0 0.0 10.862" Properties=species:S:1:pos:R:3:forces:R:3 pbc="T T T"
Si      -0.11272237      -0.07583390       0.10451176       0.98143017       1.66871057      -1.08453581
Si      -0.03163871      -0.00415288       5.46393954      -0.41444559      -1.10827368      -1.02721518
Si      -0.15209082       2.65887301       2.81236382       0.11502855       0.08246316      -0.49391612
Si       0.01262903       2.69089919       8.00177591      -0.52716797       0.91450985      -0.23958002
Si       0.03991525       5.30488696       0.06277587      -0.04545575       0.47598908      -0.48659980
Si       0.17251526       5.31615172       5.40676231      -1.54161570       1.85645069       0.88486961
Si       0.09032891       8.10049085       2.67634512      -0.47263084       0.11391266      -0.01510553
Si       0.03983228       8.21413430       8.22068429      -0.53100799      -0.17280997       0.38455854
Si       1.31419231       1.43285596       1.36736224      -0.75080727      -0.26238468      -0.18586430
Si       1.29838537       1.27792319       6.70180835       1.60803768       0.97335769       0.86791094
Si       1.30747806       4.04967283       4.01585020       1.21368296      -1.30736976      -0.47427133
Si       1.34966661       4.03022117       9.39878445       0.16563209       0.28129131       0.12033795
Si       1.48935907       6.80834702       1.23672072      -0.65127824      -0.53156418       0.55803590
Si       1.30420806       6.87246737       6.85642187       0.91066685      -0.93211408      -0.47043799
Si       1.38037174       9.51702010       4.03672846      -0.69778310       0.42655414       0.01026192
Si       1.39313470       9.57716506       9.59091452      -0.25635240      -0.19552984      -0.06109342
Si       2.64245042       0.08260615       2.68830034       0.87292977      -0.35700947      -0.06490512
Si       2.72734653       0.07614707       8.23323098      -0.35872824      -0.57373120      -1.10526380
Si       2.68443000       2.68424372      -0.09141515      -0.25252324       0.51480879       0.76942010
Si       2.76559980       2.72093349       5.43878526      -0.35137373      -0.25937517      -0.55504605
Si       2.70185622       5.36703142       2.68306779       0.15114556       0.68557780       0.10473161
Si       2.82384771       5.44075745       8.14964008      -1.22360372       0.27568622      -0.35620580
Si       2.82694530       8.15676646      -0.08370398       0.17168168       0.25808729       0.08104466
Si       2.65321119       8.20393054       5.41520327       0.04390792      -0.48831805       0.65201376
Si       4.14721294       1.29423630       4.06676975      -1.12978610       0.97133373      -0.43138427
Si       4.07772155       1.35886836       9.56438538       1.15236883      -0.20260895      -0.26161167
Si       4.04972908       4.06934303       1.27783662       0.06186547      -0.75640345       1.01035464
Si       4.11125688       4.13544668       6.75155969       0.43757615      -0.78263287       0.17748582
Si       4.00083893       6.80069427       4.14609066       0.25551418      -0.97711443      -0.20272192
Si       4.18020095       6.78034042       9.42703855      -0.20228150       0.47152106       0.33538231
Si       4.10684138       9.52822787       1.38464411      -0.55535160       0.42618354      -0.29958525
Si       4.04040852       9.51437977       6.75464178      -0.21537058       0.65005887       0.49739786
Si       5.54514072      -0.00301292       0.04556078      -0.94849183      -0.23145515      -0.24821421
Si       5.39738523      -0.05538025       5.32985275       1.37020611      -0.53001360       1.13252396
Si       5.50514566       2.74821538       2.83105764      -0.92971490       0.30559486      -1.19701383
Si       5.46628628       2.67320133       8.13274404      -0.66272222       0.29723964      -0.16262996
Si       5.37329931       5.47341906       0.05139041       1.20521483      -0.13161046      -0.52677716
Si       5.55321803       5.47118810       5.46475129      -1.02706951      -0.13171647      -0.78000735
Si       5.30088130       8.13288189       2.76700064       0.96457237      -0.50303139      -0.41823339
Si       5.45577936       8.23035649       8.10264370      -0.81629610       0.23395255       0.45000115
Si       6.77171113       1.45162895       1.34599110      -0.04624047       0.25061808      -0.26878084
Si       6.83379134       1.32491678       6.78422067      -1.06138214      -1.18340501       0.53046817
Si       6.90274419       4.10008325       4.07381654      -0.83054713       0.30340461       0.29144480
Si       6.75088906       4.09652845       9.46468712      -0.03872138       0.37988857       0.19332258
Si       6.82245187       6.82737644       1.35641975      -1.16516207      -0.04986720       0.40373018
Si       6.70638574       6.91284814       6.80239330       1.09646568      -0.98923063       0.29490974
Si       6.81325260       9.35442914       4.03910876      -0.57059181       0.88682805       0.21709085
Si       6.82649134       9.41671594       9.54248893      -0.11148308       0.19083626       0.56918183
Si       7.94946235       0.10046122       2.74184133       1.27672686      -1.02068709       0.44978408
Si       8.13722247      -0.11204650       8.23553449       0.40251550       1.19037776      -0.87162465
Si       8.10454995       2.61112964      -0.19745988      -0.05330100       1.25122677       1.21158309
Si       8.03508163       2.78062499       5.55776313       0.98427885      -0.39774419      -0.87963303
Si       8.12548854       5.41218669       2.65158820       0.66224648       0.38896755       0.14765469
Si       8.13154540       5.56468741       8.18226804      -0.31381286      -0.59039298      -0.62899203
Si       8.22885664       8.11779716       0.05566960       0.06893815       0.42385572       0.08082396
Si       8.13353077       8.08072841       5.47427474       1.28556229       0.27040531      -0.66965334
Si       9.36382431       1.31208767       4.21839130      -0.06718772       0.42075760      -0.34056004
Si       9.53456693       1.43132225       9.38860001       0.38780657      -1.78153988       0.44158397
Si       9.39704748       3.98748657       1.32545252       0.32056510      -0.39359415      -0.24141448
Si       9.42919023       4.18559967       6.67951327       0.75950731      -0.08758489       1.30789170
Si       9.57248063       6.69972287       4.04843926       0.09539975       0.11048235       0.26321500
Si       9.54026056       6.74789085       9.55817178       0.77749210       0.23629635       0.23987784
Si       9.47703177       9.57443461       1.49305305      -0.73552375      -0.80276741       0.44316230
Si       9.51554465       9.50141514       6.82894699      -0.24315429      -0.45534822      -0.07317784
64
Lattice="10.862 0.0 0.0 0.0 10.862 0.0 0.0 0.0 10.862" Properties=species:S:1:pos:R:3:forces:R:3 pbc="T T T"
Si      -0.10243421       0.12742841      -0.02800125       0.81454184      -0.12968976       0.31923733
Si       0.07514941      -0.06465376       5.54378571      -0.47113307       0.06272522      -0.96825105
Si      -0.02715600       2.74807557       2.77295642       0.49215652      -1.05450313      -0.11509299
Si      -0.05220714       2.70780254       8.12669867      -0.00945603       0.16788525      -0.23842931
Si      -0.00780944       5.45091437      -0.23054605      -0.17963564       0.13388472       2.14222239
Si       0.15495177       5.44631127       5.38831799      -1.40267853      -0.52033648      -0.59781603
Si      -0.00445387       8.23679483       2.70715376       0.18991190      -0.27936730      -0.01815119
Si      -0.12610610       8.08273690       8.21556149       1.26434925       0.99133516      -0.57761944
Si       1.39197247       1.36537349       1.40442793       0.03128851       0.25412511       0.05896248
Si       1.31200586       1.39914944       6.75321136       0.24272230       0.46442314       0.45835600
Si       1.45816778       4.12903486       3.92250249       0.23613087      -0.38184081       0.93910077
Si       1.33736541       4.04714722       9.48004903       0.95838196      -0.24874679      -0.58729875
Si       1.27706042       6.78306320       1.35532134      -0.13295031       0.50857531      -0.95123875
Si       1.28491770       6.71186357       6.89577874       0.34545721       1.18858934      -0.30293929
Si       1.39124713       9.47444933       4.15509159      -0.27980735      -0.53640491       0.07839156
Si       1.25734339       9.58532646       9.49723099       0.20526420      -0.73606505       0.29828585
Si       2.72028514      -0.06427048       2.86279870       0.26060975       0.83957374      -1.25024375
Si       2.59542874       0.04425938       8.10534726       1.00915972       0.19421521       0.56135384
Si       2.80967084       2.86236737       0.07202430      -0.97677034      -1.56185756      -0.66359300
Si       2.73999858       2.67368357       5.43532719       0.08418009       0.47324607      -1.02038246
Si       2.76222344       5.55051319       2.56654503       0.32975156      -0.40764284       1.07124202
Si       2.73187470       5.43136095       8.08727036      -0.13784406      -1.21424188       0.04703910
Si       2.71797131       8.19838667       0.07760389      -1.02811136      -0.15409760      -0.99390007
Si       2.71408752       8.10503833       5.50636002      -0.57084395       0.41683868       0.88515875
Si       4.16862911       1.35578464       4.05225558      -0.21600536      -0.63909072       0.81829147
Si       4.11607277       1.39305792       9.49535665      -1.03440590      -0.53499280       0.64260710
Si       4.16792721       4.14100686       1.34128624       0.27176209       0.39307401       0.48764465
Si       4.14002470       4.07845398       6.67361506      -0.55147461      -0.44908872       1.54780038
Si       4.03037289       6.85247310       4.15239030       0.18785262      -1.52785646      -0.33188324
Si       3.94478858       6.79058154       9.46030961       0.59701581       0.31996867       0.49889421
Si       4.06227645       9.55078791       1.33502898      -0.74025931      -0.55126669       1.56735565
Si       4.05676354       9.63171122       6.75432411       0.20380787      -0.70702862       0.25559159
Si       5.38851765      -0.00961393       0.13028750       1.03349340       0.89143555      -1.67398017
Si       5.61486844      -0.05649565       5.42010435      -1.11022460       0.98410172       0.16291766
Si       5.44919973       2.74243724       2.73730924       0.51169302       0.15413238      -0.40495755
Si       5.44796897       2.75740941       8.24270960       0.43704333       0.17755749      -1.24386415
Si       5.42341932       5.41839659      -0.13666351      -0.93055161       1.08545593       0.69327157
Si       5.50829205       5.39318526       5.44677107      -0.37987452       0.05732643      -1.42733171
Si       5.28796356       8.08530828       2.71578459       0.71086445       0.53880300      -0.45528687
Si       5.36121132       8.08690348       8.10809152      -0.13755972       0.48314751      -0.12020906
Si       6.84696304       1.41148853       1.32980532      -0.17583923       0.28042934       0.04414008
Si       6.85217972       1.41434709       6.80350648       0.10567627      -0.72370816       0.62532343
Si       6.89811971       3.99465147       4.13333389      -0.73444701       0.55992836      -0.66752449
Si       6.80351600       4.11953343       9.59784721       0.87395082      -0.13607366      -1.88157807
Si       6.65469031       6.74422614       1.32016932       0.51310145       0.10673292       0.66903840
Si       6.75097760       6.72949321       6.75084609       0.95163082       0.65933001       0.91150699
Si       6.74307539       9.36171569       4.05265501       0.82616962      -0.13115938      -0.18956271
Si       6.70146894       9.38083487       9.57042335      -0.41054438       0.00726326       0.62644729
Si       8.06137613      -0.02529404       2.72461280       0.25407688      -0.58250584      -0.25982636
Si       8.07081141      -0.20289480       8.26626016       0.51551332       1.49743359      -1.27487558
Si       8.22443743       2.84766577      -0.04125053      -0.37384601      -1.11922087       0.71964707
Si       8.25783428       2.62578398       5.33335770      -0.01143703      -0.50367089       0.86672928
Si       8.09547044       5.43979921       2.71997980       0.34904586      -0.28675639      -0.60636009
Si       8.23370428       5.45723782       8.12633068      -0.99456925       0.01691205       0.40164645
Si       8.12960914       8.18270959       0.17571112      -1.00281810      -0.57072715      -0.75608328
Si       8.21512047       8.03952550       5.41718810      -0.68037757       0.54009656      -0.08662446
Si       9.55258690       1.14646616       4.05807209       0.31012951       0.89063473       0.06702738
Si       9.41116318       1.39533481       9.44875270      -0.17400957      -0.44858619      -0.14768424
Si       9.58159698       4.05853644       1.36719851      -0.29892567       1.25340801      -0.32775946
Si       9.46800067       4.05386174       6.71620023       1.10105295       0.46073733      -0.17398254
Si       9.52997272       6.81109922       3.98057811       0.42360521      -0.63441851       0.51956136
Si       9.42701627       6.91479234       9.59794929      -0.73719575      -1.02251989      -0.24737478
Si       9.51366258       9.53232957       1.32226941       0.08230599       1.00084559       0.77381427
Si       9.53279535       9.45921157       6.76242486      -0.84010115      -0.26070632       0.80309854
64
Lattice="10.862 0.0 0.0 0.0 10.862 0.0 0.0 0.0 10.862" Properties=species:S:1:pos:R:3:forces:R:3 pbc="T T T"
Si       0.08780897       0.04966180      -0.03380982      -0.91806230      -1.84651588      -0.06563319
Si       0.04789567       0.10598086       5.41054492       0.99724288      -0.55967250      -0.61562264
Si      -0.07692533       2.65286960       2.68585152       0.71883427      -0.32851774      -0.12824212
Si      -0.00641802       2.66272754       8.20607842      -0.28633505      -0.50085304      -0.44572755
Si      -0.00212502       5.43842721       0.05141443       0.53373446       0.56918923       0.27119838
Si      -0.02835427       5.44497700       5.39476697      -0.09542479       0.43544599       0.26939722
Si      -0.21270543       8.15239556       2.75950759       2.28580928       1.21491978      -1.82995879
Si       0.00605881       8.12609366       8.22397530      -0.44376043       0.03281168      -0.36272119
Si       1.38520414       1.30761924       1.26421168       0.40907031       1.56978892       0.84412536
Si       1.41850854       1.39177969       6.74452396      -0.17277361       0.91959492       0.21146626
Si       1.20245221       4.04641304       4.08164481       0.91336109       0.03626705      -0.84246359
Si       1.24407850       4.06017239       9.51447778       1.46206641       0.21567257       0.03308189
Si       1.36922886       6.90835918       1.38072074      -0.56237609      -0.33340649      -0.21855437
Si       1.26466058       6.77038279       6.80498696       0.58149647       0.26249868      -0.33153870
Si       1.31978598       9.53832690       3.92182229       0.00610096      -0.04655668       0.97788481
Si       1.43225095       9.45031038       9.47395079      -0.19220633       0.51996402       0.34241775
Si       2.75432287       0.06668204       2.66520340      -0.08640695      -0.31528023       0.16597863
Si       2.67401706      -0.04974091       8.02134239       0.17119020      -0.22567418       0.52286212
Si       2.77579345       2.73147258      -0.04274466      -0.45163533      -0.09747748       0.13943568
Si       2.72227834       2.86994926       5.40349199       0.19820818      -0.99219830      -0.22077002
Si       2.62489063       5.39145549       2.65511019       0.03796614      -0.25345664       0.47568539
Si       2.68852551       5.40048949       8.03739938      -0.38674168      -0.93843885       0.00873662
Si       2.81956646       8.17587410       0.00475624      -0.06894347      -0.86071915      -0.62691432
Si       2.63794511       8.11383633       5.39390605      -0.69395315       0.70781040       0.21882931
Si       4.10926490       1.38500220       4.09316839      -0.41128000      -0.15943123       0.57848471
Si       3.99813287       1.26912345       9.40630745       0.52348905       0.85908943       0.24357583
Si       4.13529746       3.98567514       1.46931633      -0.22049817       0.63095958      -1.17073532
Si       4.22003571       4.14144597       6.63315491      -0.70457303       0.33939225       0.89841445
Si       3.91094325       6.79987431       4.03975081       1.18662707      -0.58054507      -0.09600011
Si       4.07508804       6.62602473       9.36861707       0.16754030       1.21577461       0.88108635
Si       4.10152902       9.52721783       1.36573322      -0.33463608       0.28950300      -0.01533415
Si       4.04497199       9.46755749       6.72858017       0.26730660      -0.13194860      -0.45978241
Si       5.37824839      -0.00770614       0.00446657       0.53131415       0.18762230      -0.55704792
Si       5.50222746      -0.03554404       5.44692225      -0.80091015       0.80116841       0.60047462
Si       5.50896722       2.68684537       2.81218322      -0.01066034       0.12747301      -0.21130202
Si       5.39749562       2.75832091       8.09787311      -0.06917816      -1.15796412       0.01929526
Si       5.45376076       5.34699788      -0.09228941       0.12149854      -0.14218289       0.96138951
Si       5.55533415       5.57214172       5.39746424      -0.58761834       0.76028182      -0.00590723
Si       5.34075110       8.19895649       2.74518086       0.43926093      -0.89020983       0.20431522
Si       5.42951539       8.08800359       8.02734003      -0.52354358      -0.11119540       0.60354255
Si       6.76939455       1.24078919       1.47641820      -0.21987975       0.94284257      -1.02574017
Si       6.85067157       1.29177398       6.90886973      -0.56162280       0.77940172      -0.91367138
Si       6.79318964       4.11947411       4.14764057       0.34201157      -0.56685670      -0.08704211
Si       6.82906388       3.90947918       9.47984371       0.43365140       1.41653113      -0.17244188
Si       6.74914278       6.81004256       1.38316167      -0.36538595      -0.29560010      -0.08401814
Si       6.98864066       6.91391248       6.79577075      -0.64298892      -1.13583726       0.13452295
Si       6.75059145       9.45393784       4.15496517       0.20761431      -0.06359818      -0.88573822
Si       6.69625930       9.41870395       9.46088726      -0.47041883       0.59676653       0.08748030
Si       8.09599702      -0.06410992       2.76609051       0.15335840       0.02306137       0.92618622
Si       8.11703224      -0.11679994       8.18765872       0.94522599      -0.29873837      -0.34235082
Si       8.11631070       2.67147097       0.10014906       0.76723522      -0.25861542       0.21214342
Si       8.15354652       2.73164721       5.47887493       0.51059463      -0.02023995       0.58152447
Si       8.11992742       5.52832209       2.88411179       0.00336395      -0.43641438      -1.48477849
Si       8.32425227       5.49185078       8.13597387      -1.64217129      -0.15681243       1.16767869
Si       8.02999529       8.18617173      -0.03357746       0.51856066      -0.28102056       0.93414935
Si       8.21569061       8.26835316       5.47203748       0.62731788      -0.26036804      -0.68487564
Si       9.51401253       1.30307636       4.09547259      -1.09376906       0.77606274      -0.28450422
Si       9.46842962       1.22950607       9.53241562      -0.26277019       1.07828712       0.10586565
Si       9.54714394       4.17479821       1.46558065      -1.29546784      -0.44374643      -0.21897443
Si       9.61686473       4.17350998       6.88257725      -0.25230162      -1.54753578      -1.10477013
Si       9.52744061       6.87011475       4.06976092      -1.25743208      -1.04007093       1.97679835
Si       9.49164129       6.81341500       9.65232871       0.05476086       0.21065011      -0.59459432
Si       9.38465516       9.53767257       1.38585238       0.78945082      -0.04396421      -1.26259036
Si       9.67579856       9.56243600       6.68623414      -0.81953765      -0.19716792       1.75231861
64
Lattice="10.862 0.0 0.0 0.0 10.862 0.0 0.0 0.0 10.862" Properties=species:S:1:pos:R:3:forces:R:3 pbc="T T T"
Si      -0.00495294      -0.03113255      -0.08689635       0.70031694       0.23819846       0.44695707
Si      -0.09150368      -0.02446884       5.56328494       0.78975638      -0.28582936      -0.41198637
Si       0.14888253       2.75937239       2.69354528      -0.26695221      -1.19659402       0.36345707
Si      -0.14174107       2.69134227       8.17213662      -0.08351473       0.62758923       0.50648535
Si      -0.03879070       5.42231790       0.04548559       0.63251108       0.93394799       0.43796681
Si       0.07550893       5.46979668       5.56927977      -0.51889977      -0.35447013      -0.88214757
Si      -0.11637903       8.18947681       2.82034927       0.79420400      -0.41078322       0.29892018
Si      -0.02208627       8.04992923       8.22968327      -0.02102644      -0.79286969       0.07730030
Si       1.41336779       1.34348904       1.26143880      -0.31479803       0.40745055      -0.25947416
Si       1.27095917       1.45971313       6.80671498       0.34603760       0.14332971      -0.58468544
Si       1.36698748       4.15309893       4.07659509       0.57166701       0.06163119       0.38824013
Si       1.30857742       4.06151677       9.61110331      -0.23527590      -0.10587726      -1.28771297
Si       1.33995785       6.90407968       1.49149128      -0.97872460      -0.83361695      -0.72965646
Si       1.42298675       6.86365683       6.79083961      -0.25356897       0.53283616      -0.10341727
Si       1.30418250       9.58990416       4.03416635      -0.12819672       0.08664779       0.66972777
Si       1.31710633       9.36946497       9.52153330       0.62698659       0.97605177      -0.15081945
Si       2.69002668       0.08736033       2.69214386       0.30168019      -1.37879177      -0.25046451
Si       2.56052056      -0.03639713       8.04916235       0.25917051      -0.24754358       0.26063848
Si       2.78355065       2.70661078      -0.07047376       0.14666707      -0.03128479      -0.08207725
Si       2.82234157       2.84848271       5.43720566      -0.88192231      -0.47355504       0.50312759
Si       2.69354311       5.39835765       2.57760049       0.29051003       0.65786533       1.16862088
Si       2.60735824       5.45723714       8.11999521       0.69072501      -0.48278411       1.41523164
Si       2.68630196       8.07429885       0.04881972       0.35969918       1.38038418       0.78892091
Si       2.72077251       8.19936830       5.33363975      -0.76044131      -0.70762530      -0.92748369
Si       3.98144405       1.31618678       4.11023726       1.14884552       0.36089746       0.36221589
Si       4.01383964       1.34117686       9.29205290       0.74859488       0.00276203       0.79918629
Si       4.11035718       4.06851360       1.34786994       0.19520410      -0.57711355      -0.31111978
Si       4.13840320       4.20318057       6.87843538      -0.68489463       0.05044688      -1.01326789
Si       4.09487493       6.88972347       3.92187415      -0.72993595      -1.13583130       0.56299344
Si       3.99226578       6.78444377       9.60850966       0.28469272      -0.56832440      -1.26613035
Si       4.22683480       9.45798647       1.44236073      -2.13293736       0.80587038      -0.74462786
Si       3.94812944       9.52934385       6.62499209       1.02975897       0.25442587       1.61895063
Si       5.40027237       0.03764540       0.08746691      -0.29925013       0.24909653      -1.51231523
Si       5.48411574      -0.07340736       5.42284199       0.04128050       0.82330437      -0.12535815
Si       5.39351753       2.64811140       2.74985815       0.32048820       0.10698439      -0.10077440
Si       5.50074349       2.78766787       8.00770015       0.12436449      -1.52906421       0.64670677
Si       5.43706543       5.50616687       0.05474370       0.31199379      -0.45167909      -0.26889957
Si       5.37014377       5.50161679       5.37462405       0.40420294       0.16236736      -0.10846022
Si       5.51948991       8.22854951       2.76846768       1.70103090      -1.02204220      -0.05830219
Si       5.28291976       8.14235374       8.13287088      -0.21203286       0.62717554       0.35380440
Si       6.83738165       1.33203887       1.32615786      -0.38861722       1.45889365       0.02186471
Si       6.95034834       1.30677494       6.76143969      -1.25433885      -0.28935375       0.36954163
Si       6.77819498       4.05995067       4.07918044      -0.00903169       0.10665241      -0.40669832
Si       6.70968823       4.08333104       9.48028547       0.73323071       0.44390575       0.38842192
Si       6.94759513       6.73631716       1.36842091      -0.73175023       0.97173471       0.22753199
Si       6.68351687       6.85229498       6.80791426       0.25723136      -0.87520280       0.09378969
Si       6.96092844       9.50379078       4.12291074      -0.21362089       0.58948380      -0.85198703
Si       6.67847212       9.50939837       9.54297783       0.08811163      -0.25101423      -0.17185712
Si       8.25235560       0.04776660       2.54544885      -0.12765521      -0.96507664       1.27137056
Si       8.16776626      -0.10829088       8.20638397      -0.59677280      -0.20630573      -0.27116476
Si       8.19739118       2.86505956       0.05624529      -1.09872543      -1.28799907      -0.67571729
Si       8.13575791       2.59429551       5.31923841       0.97015257       0.84832830      -0.36298752
Si       8.30493010       5.36927037       2.66185868      -1.20245781       0.03071876       1.30809962
Si       8.14939058       5.38717714       8.07341645      -1.61324678       1.32266455       1.22949038
Si       8.19206893       8.22129629       0.01254748      -0.68224185      -0.09121704       0.00175143
Si       8.13833861       8.03731799       5.46345999       0.06737840       0.52060736       0.35680877
Si       9.63484316       1.23547323       3.99329603      -0.40679298       1.17355083       0.00291119
Si       9.37377771       1.27174129       9.58392102       0.50967719       1.07150822      -0.31171865
Si       9.60086770       4.03147389       1.40421679       0.41857375      -0.03113378      -0.15658843
Si       9.37691541       4.14421928       6.73223917       1.30462835      -1.84252063      -0.60405020
Si       9.50062741       6.72040772       4.16186760       0.39022641      -0.17849310      -0.24038681
Si       9.39365064       6.73170777       9.60282788       0.53242349      -0.27706822      -0.96854604
Si       9.64247310       9.49859675       1.33425464      -0.87305130       0.09135455      -0.32619703
Si       9.51682494       9.32845548       6.88174109      -0.39134753       0.76239889      -0.41395350
64
Lattice="10.862 0.0 0.0 0.0 10.862 0.0 0.0 0.0 10.862" Properties=species:S:1:pos:R:3:forces:R:3 pbc="T T T"
Si      -0.01182187      -0.01652229      -0.04043369       0.19835717       0.87858401       0.14032478
Si       0.01650472       0.05174655       5.35316322      -0.27329795      -0.38986356       0.30819523
Si       0.07067807       2.76089208       2.69221059      -0.31091773       1.04301982       0.97696264
Si      -0.05150011       2.62456106       8.10067018       0.15080492      -0.03439778       0.22773706
Si      -0.07727845       5.44727400       0.03971105      -0.15026699       0.13506824      -1.15346230
Si       0.00884567       5.47815001       5.37244437       0.01098149       0.25172699       0.60356678
Si      -0.00005800       8.08972130       2.54150055      -0.49364470       0.38533474       1.29137752
Si       0.05791098       8.09411267       8.09342977       0.09192246      -0.18028594      -0.05519696
Si       1.35015789       1.41445356       1.43175141       0.24867860      -0.84280524      -1.41421410
Si       1.37790594       1.26085358       6.79088936       0.38652415       0.32924282       0.20908663
Si       1.39250557       4.15655371       4.23033536       0.80234413      -1.17470679      -1.58025658
Si       1.22311107       4.10524781       9.46876994       0.39315490      -0.48323710       0.41504174
Si       1.30700709       6.77956772       1.27534933       0.60412785      -1.13751594       0.81606825
Si       1.40532155       6.83998758       6.60468746       0.58629723      -0.22596154       1.37413166
Si       1.23780156       9.50187579       3.94497967       1.30554160      -0.09498411       0.27123536
Si       1.30975744       9.47127527       9.48228962       1.13020838       0.14105186      -0.08804214
Si       2.72847511       0.05271838       2.70715667      -0.40176281      -0.11682826       0.58633390
Si       2.85508779      -0.08272781       8.06308103      -1.04309891      -0.57081716       0.13710737
Si       2.66022241       2.73771507      -0.00226604       0.15546434      -0.23207383      -0.68252863
Si       2.76570907       2.69920579       5.54455159      -0.44091573       0.55263464       0.16593622
Si       2.70860032       5.48653254       2.72802324       0.12032212      -0.25307980       0.26003713
Si       2.69587086       5.47467120       8.24735541      -1.34676466       0.14172547      -0.92955539
Si       2.64184054       8.08757485       0.06278227       0.68665675       1.25820433      -1.05522730
Si       2.84200394       8.18416530       5.32914312      -2.24560216      -0.44023185      -1.21288625
Si       4.07487277       1.39042193       4.14721003      -0.01965410      -0.27208311      -0.52799513
Si       4.10584456       1.27716959       9.44996859      -0.57448145       0.88578533       0.58664028
Si       4.04994429       4.04790231       1.37733289       0.14017199      -0.01008631       0.30459193
Si       4.02352062       4.06819255       7.02867561      -0.23840336       0.09280914      -1.11883726
Si       4.17818759       6.73801339       4.17047128      -0.50454495       0.18644323      -1.39084574
Si       4.02071715       6.82645832       9.49511254       0.28733739      -0.07094848       0.81300640
Si       4.01594556       9.50818554       1.38030062       0.00421646       0.00598859      -0.16736469
Si       4.11515962       9.40441051       6.60935829       1.18654954       0.75162530       2.37629825
Si       5.39952184       0.04192809       0.04803786      -0.01573427      -0.63506154       0.08373626
Si       5.43720894      -0.02949835       5.38929718       0.55936476       0.57178400       0.11515783
Si       5.47890631       2.68238684       2.78202662      -0.87373013       1.41943806       0.60179008
Si       5.41878447       2.74538364       8.19999024       1.13984556      -1.10758186      -0.07390122
Si       5.36589152       5.44208531       0.00267838       0.43167854      -0.32141466      -0.30699155
Si       5.33286694       5.43882018       5.64335860       0.79176316      -0.06939583       0.21249028
Si       5.40354978       8.19150171       2.73251368       0.10034582      -0.75733845      -0.44730373
Si       5.47007466       8.08876597       8.22141239      -0.48954334       0.40265078      -1.11983232
Si       6.70601198       1.39243529       1.42249547       1.55976680      -0.57280336      -0.43169531
Si       6.85588576       1.38040572       6.72559799      -0.78309204      -0.23173416       0.59951548
Si       6.71837456       4.18987780       4.22598504       0.14633579      -0.53461718      -0.74297392
Si       6.83451965       4.01509692       9.54264032      -0.42835289       0.66400022       0.12822544
Si       6.74980081       6.84240598       1.27696422       0.14616182      -0.17901219       0.80893425
Si       6.87363632       6.84154347       6.81041092      -0.00980261      -0.88576114       0.31319387
Si       6.76808600       9.51878084       3.99808027       0.39007479      -0.35326311       1.01613731
Si       6.70348135       9.42942863       9.61452709       0.49638286       0.81821664      -0.27553070
Si       8.14100947       0.00394073       2.80288869       0.58053232       0.31628760      -1.47035268
Si       8.05786911      -0.09667300       8.14905878      -0.03488807      -0.05546097      -0.15998517
Si       8.18578776       2.72533587       0.05191895      -0.36097921      -0.32082571       0.37662834
Si       8.18070564       2.74950350       5.38215372      -0.24379240       0.07569166      -0.20322310
Si       8.09099672       5.53696705       2.80766722      -0.28073587      -0.56685624      -0.66295937
Si       8.21204405       5.25799493       8.08504919      -0.21456790       0.72854277      -0.23859100
Si       8.19851648       8.10967022      -0.05029941      -0.28615093       0.17018768       0.08397294
Si       8.19985741       8.18996614       5.41748767       0.15750950       0.36572604       0.01931934
Si       9.54582571       1.44900820       4.02556812      -0.25726785      -0.39243376      -0.06260040
Si       9.35705153       1.28758168       9.48241160       0.80055865       0.27537172       0.16051380
Si       9.50952775       4.13456502       1.40664126      -0.67746093      -0.23187459       0.62673584
Si       9.63373569       4.02311025       6.63314121      -0.56486477      -0.00794798       1.08586199
Si       9.56725860       6.79332389       4.07014241      -0.58570130       0.86217312      -0.57221409
Si       9.46591222       6.77774094       9.38974605       0.36484070      -0.56986393       0.24304311
Si       9.54111878       9.48906341       1.28817648      -0.95496373       0.42134401       0.45354256
Si       9.63333109       9.53319345       6.83822632      -1.04983879       0.19249463      -0.64791084
64
Lattice="10.862 0.0 0.0 0.0 10.862 0.0 0.0 0.0 10.862" Properties=species:S:1:pos:R:3:forces:R:3 pbc="T T T"
Si      -0.04107378       0.10463638      -0.09195899      -0.08063366      -0.35101441       0.36926271
Si       0.14620457       0.21005531       5.31585464       0.27072465      -1.12405250       0.66892682
Si       0.07463224       2.68770502       2.71028025      -0.94991990       1.06414675       0.04090782
Si       0.01228427       2.76416382       8.07149051      -0.05646060       0.40557948       0.07426819
Si      -0.20529483       5.60978601       0.02019679       1.33122865      -1.02839825      -0.28722812
Si      -0.03180286       5.50072936       5.35012579       0.14288934      -1.15126624       0.17113985
Si      -0.03129887       8.29053664       2.71061321       0.01312529      -0.97876551      -0.37148275
Si       0.07453916       8.06434603       8.06251587      -0.60446184       0.48225960       0.98493720
Si       1.36143159       1.32745619       1.43233208      -0.52264877      -0.26742644      -1.17599138
Si       1.45473950       1.49847806       6.76855527       0.23128077      -1.08847083       0.67943131
Si       1.36629298       4.06880073       4.09179210       0.65872711      -0.03817638       0.28316875
Si       1.22152910       4.10866640       9.57298324      -0.40686147       0.10151263       0.52308847
Si       1.28580825       6.82455191       1.31279640       0.56175466       0.47157567       0.75790905
Si       1.31331658       6.72378916       6.72737545       0.38058646      -0.83186041       0.82728784
Si       1.42970281       9.48886343       4.07410907      -0.24692722       0.38229223       0.09471883
Si       1.31018094       9.40783714       9.56210145       0.05756032       0.79312552      -0.46546642
Si       2.70976674      -0.03958828       2.61693212       0.62646533      -0.00472579       1.50255099
Si       2.72821671      -0.02403491       8.26592561      -0.93878767      -0.03669568      -0.75542542
Si       2.60843607       2.76897415       0.11116833      -0.29439827       0.42216735      -0.41622173
Si       2.87870783       2.74087516       5.48200665      -0.84632401       1.01065224      -0.24105072
Si       2.71998123       5.47144650       2.73770084      -0.26479941       0.26444875      -0.05253927
Si       2.59194702       5.42180031       8.26579311       0.98776630      -0.12393776      -0.79156325
Si       2.74099137       8.20059244       0.04058022       0.44607251      -0.74657884       0.09399878
Si       2.64872551       8.04810071       5.51521882       1.17370139       0.60546817      -1.36434641
Si       4.03287658       1.38585465       4.07962166       0.57072050      -1.31643553      -0.58985065
Si       3.89701266       1.37841755       9.66836124       1.23226644      -0.17824008      -0.42238060
Si       4.02636257       4.11244859       1.34576260       0.58512222      -0.31612155       0.48039052
Si       4.14439925       4.03310080       6.93874226      -0.46916705       0.20796286       0.41164734
Si       4.20508175       6.78440942       4.09195641      -0.92690642       0.18343157       0.05129260
Si       4.10363297       6.78703425       9.48072813      -0.55756287       0.56383940      -0.03458467
Si       4.15903449       9.50425175       1.42656383      -0.23807442      -0.90279870       0.03306281
Si       3.98483830       9.46211956       6.79840521       0.24248960      -0.14948292       0.78324127
Si       5.36328638       0.02070644       0.09487555       0.47548016      -0.01390117      -1.07053218
Si       5.36906335      -0.12785911       5.46798631      -0.22050953       1.31997368      -0.45975337
Si       5.43695192       2.58583724       2.62106097      -1.18077406       1.12439370       0.55007066
Si       5.44880761       2.52498551       8.23137600      -0.25129351       1.25550911       0.75316834
Si       5.40615598       5.44679626      -0.00271801      -0.28832143       0.37907735       0.43611148
Si       5.41202910       5.33969677       5.48385840      -0.02127946      -0.51425269      -0.87427421
Si       5.60886710       8.15523153       2.74746881      -0.37542782      -0.11698372       0.06509347
Si       5.48276136       8.10431590       8.05952211      -0.24491037       0.29034820       0.60825955
Si       6.77342381       1.21407341       1.47502440       1.19387913       0.50152698      -1.35525007
Si       6.74524745       1.35781657       6.71653170       0.15510455      -1.34090821       0.47870410
Si       6.71233993       3.93297846       4.01147930       0.20355110       0.50118122       0.60294100
Si       6.75813578       4.13533471       9.59768894      -0.45425106      -0.92114830      -1.42945596
Si       6.87176684       6.76295557       1.29888904      -0.02636049       0.14628554       0.39485626
Si       6.75911444       6.70766449       6.68253323       1.03691488       0.93493439       0.41269679
Si       6.86837260       9.52724931       4.20464380      -0.22627501      -0.56898026      -0.44923764
Si       6.79671999       9.53506214       9.54176385      -0.38111888       0.43378518      -1.09986497
Si       8.18698354      -0.06777771       2.81187539       0.15402587       0.82827961       0.07896365
Si       8.24204289      -0.07245521       7.96020560      -0.87611408       0.39747914       0.96930361
Si       8.08444117       2.74116039      -0.08300959       0.72198673      -0.91798879       1.30823770
Si       8.12131937       2.64450019       5.41678275      -0.14597956       1.34383698       0.14287377
Si       8.11856130       5.33392122       2.75060228      -0.12065421       0.27342884      -0.29182431
Si       8.06177725       5.37261762       8.09909117       0.23514477       0.37991946       0.26418640
Si       8.18310361       8.26956678       0.00441799      -0.67464584      -1.54870263      -0.74824296
Si       8.26113635       8.16155689       5.44059525       0.27160151      -0.50802974       0.44343648
Si       9.52399720       1.45179437       4.10590224      -0.05553111      -0.68199199      -1.08134812
Si       9.47011474       1.41715713       9.33361496      -0.29929217      -0.19765684       0.37949388
Si       9.50430429       4.12341171       1.31741516      -0.23644259      -1.20564762       0.37757949
Si       9.49726206       4.12313982       6.72921180      -0.21378917      -0.35631935      -0.06786898
Si       9.52019760       6.74264221       4.00028768      -0.57544427       1.17957537      -0.44256602
Si       9.42052808       6.81230394       9.43173277      -0.48865598       0.79501616      -0.72776721
Si       9.42921410       9.57006784       1.29974006       1.43976811       0.77466061       0.62353630
Si       9.77676997       9.57334350       6.72891958      -0.63893411      -0.29071459      -0.65462670
64
Lattice="10.862 0.0 0.0 0.0 10.862 0.0 0.0 0.0 10.862" Properties=species:S:1:pos:R:3:forces:R:3 pbc="T T T"
Si      -0.09072140       0.09219055       0.05297471       1.74532959      -0.19582426       0.04676684
Si       0.03425655       0.05361459       5.43724064       0.13366433       0.17238265       0.09004784
Si       0.10259439       2.70807559       2.83361558      -0.72760687       0.94221636       0.12572123
Si      -0.06475531       2.57604233       8.28326368      -0.69306587       0.16042040      -0.77018344
Si       0.07592508       5.40337208       0.02888651      -0.94160747      -0.67839658      -1.36009911
Si      -0.01129714       5.45854680       5.57526704       0.23294123       0.69699958      -0.80840072
Si      -0.04593660       8.09510567       2.73644430      -0.60760430      -0.20482998      -0.07010753
Si      -0.05285755       8.16034926       8.07187252      -0.13802802       0.99092034       0.09251456
Si       1.37645340       1.47949172       1.40604732      -0.28831678      -1.91509059       0.37647741
Si       1.41909651       1.43521810       6.92768368      -0.55851456      -0.03582568      -1.64600036
Si       1.38816414       4.22616110       4.11824821      -0.22047752       0.02988357      -0.49240670
Si       1.32619167       3.86130532       9.48463075       0.92981544       1.47042024       0.82928689
Si       1.24019328       6.78961854       1.33956038       0.62770742       0.25094659       0.44797463
Si       1.43822219       6.91269119       6.79003151      -0.53437975      -1.46832511       0.64264959
Si       1.26739707       9.40159258       4.03818423       0.77314452       0.80411657       0.82211787
Si       1.29803844       9.54820854       9.48809343      -0.45024260       0.40534358      -0.47154444
Si       2.67126274      -0.08203300       2.75401331      -0.18598111       0.75663119      -0.31515333
Si       2.74097258       0.02502855       8.09076732       0.41555014      -0.78134534       1.04836859
Si       2.77361996       2.63174755       0.08190240       0.41965304       0.71756946      -1.09952656
Si       2.68873580       2.79330863       5.38006093       0.16855257      -0.49210006       0.46986379
Si       2.71699366       5.51229808       2.57226575       0.11207548      -0.14644798       1.01646502
Si       2.67839224       5.31074395       8.11282279       0.50163472       0.43746196       0.10774765
Si       2.51648201       8.07383270      -0.06460455       1.48100420       0.40019694      -0.10031353
Si       2.75171467       8.09691954       5.36831965       0.51204038       0.40476194      -0.70825480
Si       4.03461583       1.34654891       4.08573033       0.23068168      -0.70408994       0.41644815
Si       4.13594633       1.28693434       9.53037569      -0.37520876       0.67148198      -0.36010670
Si       4.09303567       4.09473862       1.36264081       0.35185147      -0.42219276      -0.09827817
Si       4.14496701       4.12510127       6.60779193      -0.70095140      -0.51778060       1.24541089
Si       4.19131886       6.84658949       3.87473324      -0.42620849      -0.62774876       1.05126957
Si       4.10350481       6.66147854       9.59904040      -1.12599891       0.91602773      -1.39992830
Si       3.94470386       9.54534114       1.24251060      -0.79767095      -1.21264681       0.60622851
Si       4.06960635       9.44427893       6.78705388      -0.20593740      -0.53317183       0.29620153
Si       5.37083768      -0.08934930       0.03960516       1.06539567       0.71117894      -0.51918458
Si       5.44429685      -0.15129256       5.49259734      -0.11195450       1.83039221      -0.37353690
Si       5.42989719       2.67535842       2.73467241       0.29200131       0.22684184       0.02346968
Si       5.40806382       2.76243971       8.12977393      -0.22638744      -0.21885609      -0.23782702
Si       5.48672305       5.40074413      -0.01306808       0.55471326       0.18873756       0.97421506
Si       5.54092768       5.34647886       5.29730465      -1.03148012       1.39150803      -0.13448201
Si       5.42841592       8.26707276       2.56162447       0.29051149      -0.01129290      -0.38272380
Si       5.49706031       8.04653731       8.08843196      -0.87833125      -0.95379485       0.02706639
Si       6.82069590       1.32151655       1.33303970      -1.38337621      -1.08813772       1.27339023
Si       6.79155099       1.28772726       6.90740063      -0.89676847       0.56129814      -0.98602737
Si       6.88329947       4.03878522       4.11107072       0.34901111      -0.38692410      -1.60758672
Si       6.77622385       4.14829384       9.40751598       0.66891429      -0.68579994       0.48620699
Si       6.91076847       6.87661326       1.30407815      -1.16340579      -0.76265706       0.44343446
Si       6.86592679       6.62122895       6.68186986       0.00974123       1.12887329       0.58516247
Si       6.75168992       9.58214261       3.97809224      -0.08676524       0.13237779      -0.56688798
Si       6.67141072       9.40692330       9.51433024       0.86300417       0.87685346      -0.36337673
Si       8.25821391       0.08846488       2.76544512      -0.85035586      -0.26857846      -0.27902566
Si       8.12981705       0.00688729       8.16691883      -0.17754669      -1.08936541       0.90096556
Si       8.00967171       2.63940146       0.06033731       1.32733395       2.29272684      -1.12479570
Si       8.11198383       2.68775455       5.52688146      -0.01298592       0.13956509       0.36995880
Si       8.21761893       5.55890822       2.73237128      -0.28457395      -1.75219722      -0.57587325
Si       8.30303554       5.47129923       8.17854549      -0.54049459      -0.03744154      -0.02737252
Si       8.15018027       8.27466487       0.03484986       0.64177796       0.34293699      -0.17586899
Si       7.98153065       8.19362445       5.28086999       0.69085374       0.06126939       1.43478861
Si       9.46084043       1.45104331       4.14615173       1.17743327      -0.19845370       0.11521038
Si       9.37986923       1.30135950       9.61253569      -0.24435611       0.33038899      -0.41753174
Si       9.62127384       4.02376283       1.38467258      -1.12693676       0.09870396       0.22140459
Si       9.54975797       4.02102169       6.83110540       0.07209492      -0.35326413       0.54639967
Si       9.41465654       6.83563367       4.14356093       1.26633570      -0.18939982       0.39639691
Si       9.51559614       6.92023688       9.58682705       0.59113853      -0.84349028      -0.15570174
Si       9.58558782       9.58886454       1.42921401      -0.66358657      -0.60909131       0.00388744
Si       9.41174062       9.61741132       6.68990472       0.16119941      -1.15687281       0.09458856
64
Lattice="10.862 0.0 0.0 0.0 10.862 0.0 0.0 0.0 10.862" Properties=species:S:1:pos:R:3:forces:R:3 pbc="T T T"
Si       0.17891243      -0.09194824      -0.00212449       0.27793063       0.81640801      -0.61040603
Si      -0.00981761      -0.01135588       5.35887717       0.98144915      -0.49481494       1.55891637
Si      -0.05228313       2.69202734       2.63763411       0.12889571      -0.69848967       0.93683020
Si      -0.03937814       2.56153536       8.14776584      -0.03931099       0.94232360       0.16580512
Si      -0.05473243       5.47211310      -0.01752376       0.09071526      -1.02612374      -0.23452169
Si      -0.06965650       5.38948435       5.42217232       0.27977113      -0.18619780       0.53754231
Si       0.01661833       8.05197519       2.67847913      -0.46999922       0.35234602      -0.56441640
Si       0.06281942       8.09468133       8.19101661      -0.91086344      -0.01119410      -0.19736580
Si       1.40577251       1.37408210       1.35244934       0.09828964       0.02623466      -0.10352255
Si       1.38929849       1.27063664       6.83747854      -0.47525325       0.06975893      -0.54008273
Si       1.28392708       3.93488254       4.14327925      -0.57105353       0.88847505      -0.93262394
Si       1.27411693       4.11452593       9.40065986       0.55071505      -0.58074892       0.66339892
Si       1.33782701       6.71386672       1.29936053       0.35570885       0.76378382      -0.00135791
Si       1.35432479       6.80737280       6.75009662       0.13334906      -0.32217206      -0.14607070
Si       1.22186608       9.53381571       3.93840781       1.08903870      -0.04572409       0.21753470
Si       1.46975872       9.44432020       9.41777022       0.18356073       0.27067656       0.53534618
Si       2.74423681       0.00603082       2.69692847      -0.01859667       0.05511986       0.09383725
Si       2.82743442       0.06267559       8.17102075      -0.19945632      -0.87968074      -0.12116888
Si       2.73848592       2.76787886       0.02653967      -0.04350908       0.71268502      -0.42600774
Si       2.62491492       2.71045112       5.49004983       0.74342976      -0.49014557       0.01391205
Si       2.55901288       5.38477912       2.71880630       0.07250389      -0.05668915       0.98782321
Si       2.76143311       5.49868473       8.18147083      -0.40758868       0.55052376       0.19134938
Si       2.77165502       8.15305709       0.03815701      -0.46967588      -0.04219358      -0.15530211
Si       2.60476829       8.28455635       5.36262533      -0.14970358      -0.85691408      -0.08923378
Si       4.05083125       1.39727118       4.09275055       0.24478146       0.34056026      -0.16847183
Si       4.12785707       1.39623732       9.53151115       0.69640854       0.18789240       0.02732883
Si       4.05014718       4.22814895       1.45000998       0.54216159      -1.38870015      -0.55249443
Si       3.96189572       4.16358568       6.73913641       0.12512159      -0.29685839      -0.09594392
Si       3.90730664       6.76363932       4.08307359       0.38362167       0.69173992      -0.55803182
Si       4.17027861       6.95347540       9.51160911      -0.51961555      -1.01932480      -0.14059854
Si       4.12175047       9.55170846       1.29234206       0.22997439      -0.12732007       0.85896076
Si       4.02630336       9.51391140       6.68083648       0.67473129       0.98404801       0.49318221
Si       5.58989562      -0.05169495      -0.00514360      -0.56494258       0.64431873      -0.46187315
Si       5.47582988       0.10927150       5.42995694      -0.55723784      -1.59040641      -0.75542055
Si       5.52809402       2.73156249       2.72107165      -1.26616285      -0.04072646      -0.40690216
Si       5.34779392       2.72880410       7.90075518       0.10010416      -0.51528606       1.18482561
Si       5.39822827       5.53590293       0.05430099       0.73319861      -0.46747662      -0.66088181
Si       5.32951820       5.44155767       5.38039071       0.17954356       0.11686467      -0.12963843
Si       5.43717047       8.14981736       2.74542852      -1.13421949      -0.05672423       0.25425375
Si       5.42560139       8.24081409       8.07520935       0.22696802       0.26800016       0.33197363
Si       6.87415380       1.34940779       1.36564395       0.32114674      -0.21002214       0.46119875
Si       6.83100787       1.34864027       6.71514928       0.05585588      -0.18027447       1.44591123
Si       6.76893782       4.11529085       4.05888326       0.51475760      -0.44032509       0.72126916
Si       6.67686252       3.98909167       9.37448982      -0.33643775       0.52374120       1.22580711
Si       6.81640152       6.86857876       1.43875195      -0.56307318      -1.02957772      -0.08158504
Si       6.65271029       6.82620707       6.73308289       0.88371022      -0.55677816       0.12699000
Si       6.81529215       9.39489495       4.13258183      -0.33030051       1.02570647      -0.09636563
Si       6.92677169       9.37850723       9.57368588      -0.57810534       0.36087985      -0.67245433
Si       8.23079856      -0.15112042       2.76556599      -0.70669238       0.86925064      -0.16171662
Si       8.15906785      -0.00025903       8.22341347       0.35429640       0.42324931       0.18390186
Si       8.12892280       2.84823680       0.03653662      -0.01193790      -0.87496650      -0.52146828
Si       8.16181127       2.60244690       5.40265171       0.30660859       1.56123189      -0.35208171
Si       8.13567875       5.47091070       2.74482499      -0.30549519      -0.30486675      -0.10061233
Si       8.00892319       5.37795967       8.12379279       0.25712335       0.94953038       0.05864489
Si       8.20631354       8.08790939       0.16146297       0.87710901       0.93223670      -0.72427031
Si       8.17911383       8.13648590       5.48525289       0.48875169      -0.22363262       0.29542801
Si       9.54199674       1.23648629       4.11445391      -0.77715580       1.42058946      -1.38701191
Si       9.58072553       1.33229250       9.70110810      -0.74974010       0.06113804      -0.61023517
Si       9.48494921       4.12248063       1.42186924      -0.02069194       0.39802849      -0.54492607
Si       9.43132917       4.03551316       6.87049142       0.31651748      -0.48253052      -0.71495654
Si       9.50216763       6.74975631       4.03272397      -0.02050470       0.58228609       0.85110433
Si       9.43294877       6.75600510       9.54513270      -0.22446302       0.20148538      -0.77349985
Si       9.65575534       9.62121367       1.32883581      -0.70174139      -1.84925762       0.54145585
Si       9.58354250       9.56492197       6.86097782      -0.37432122      -0.64497019      -0.17101096
64
Lattice="10.862 0.0 0.0 0.0 10.862 0.0 0.0 0.0 10.862" Properties=species:S:1:pos:R:3:forces:R:3 pbc="T T T"
Si       0.11919330      -0.11339125       0.15342218      -0.12496949       1.68041598      -1.03275994
Si      -0.04257728       0.07940426       5.36399373       0.77675150      -0.91256081       1.12143316
Si       0.03035265       2.75044173       2.67678307      -0.59970879      -0.01644647       0.14412678
Si      -0.06869583       2.75648462       8.16080048      -0.22061920       0.07176810       0.91665194
Si       0.02732814       5.52606859       0.04221003      -0.63143961       0.46562217       0.59447187
Si      -0.04060901       5.42568579       5.44844644       0.02018980      -0.16969191       0.38633314
Si      -0.09733066       8.11910095       2.74460178       1.42801867       0.23641590       0.74718927
Si      -0.03159421       8.06170343       8.07836743      -0.24673810       1.22583646       0.51599811
Si       1.42671751       1.42570932       1.35035300      -1.00724477      -1.10292361       0.83853227
Si       1.28131967       1.33239601       6.99850828       0.12576591      -0.47717142      -1.19088020
Si       1.33176332       4.00005595       4.17086854      -0.31238182       0.32842470      -0.09506273
Si       1.24253849       4.19126260       9.53658305       0.99350135      -0.82708812      -0.65193972
Si       1.41301674       6.92768770       1.37321748      -0.01207608      -1.08630697       0.76152424
Si       1.38839259       6.84696415       6.79971868       0.06743426      -0.65131432      -0.92676959
Si       1.53026558       9.51742530       4.13895206      -2.53925592       0.81342563      -1.24278565
Si       1.30532447       9.48845036       9.53003760       0.04407488      -1.33276592      -0.05652997
Si       2.71940718       0.06498291       2.72115182       1.04466038      -0.50297104      -0.02506212
Si       2.66457045      -0.09473510       8.25249409       0.94935196       0.17973924      -1.36673896
Si       2.60812021       2.62201661      -0.06275497       1.59865175       1.72397256      -1.45862199
Si       2.59004478       2.67188431       5.57496515       1.45387466      -0.04406751      -0.04276138
Si       2.69963257       5.39864081       2.90021386       0.27623424       0.87134814      -0.90852385
Si       2.74190182       5.57922598       8.19074668      -0.32317285      -1.36151846      -0.15157974
Si       2.80585219       8.17378533      -0.03342087      -0.25624982       0.29002133       0.04724431
Si       2.73902468       8.10614960       5.31885952       1.24528357      -0.35419788       1.38384606
Si       4.12911217       1.45718499       4.03261893      -1.01771016       0.13353678       0.40357333
Si       4.13744607       1.31483563       9.36061712      -0.80234539       1.19872310       0.41817823
Si       3.93872119       4.16419524       1.28923954      -0.03378839      -0.11306747      -0.21720113
Si       4.09698423       4.18335818       6.78857738      -0.36231685      -0.82987328       0.19138408
Si       4.28300632       6.81629193       4.11302254      -1.76326970      -0.59952098      -0.51640409
Si       4.14628413       6.86420527       9.43498954      -0.03732623       0.34508546       0.31780399
Si       4.16544241       9.49678172       1.35208495      -0.74085877       1.07337211      -0.28205713
Si       4.14663571       9.55134730       6.64128577      -1.81509653      -0.12264840       0.53194492
Si       5.41011856       0.20056171       0.01428789       0.38060037      -0.92372089       0.77263776
Si       5.43453168       0.00104957       5.29720373       0.31826671      -0.38392882      -0.54085030
Si       5.35077065       2.88416666       2.64184890       0.59145812      -0.50269886      -0.17139073
Si       5.59076744       2.72952611       8.08053483      -0.79728039      -0.06157216      -0.29926601
Si       5.44262581       5.52632143      -0.03555076       0.13695161      -1.14103498      -0.08125430
Si       5.51686572       5.44194762       5.41970307       0.22228514       0.20801487       1.28419746
Si       5.43626341       7.97836871       2.53922551      -0.43661724      -0.12773361      -0.66429197
Si       5.39902097       8.20984738       8.01514128       0.50260057      -0.26145607       0.56270300
Si       6.88800369       1.43810826       1.42025006      -1.30927936      -0.37346992       0.51093787
Si       6.82943981       1.18807896       6.70872322      -0.16308709       0.61514942       0.55306739
Si       6.75599023       4.09026643       4.07187366       0.43285271      -0.74868428      -0.15605803
Si       6.89727636       3.99662133       9.59571955      -1.21924630       0.40564884      -0.28490854
Si       6.91919065       6.71815702       1.31235697      -0.25384418       0.90416331      -0.87130693
Si       6.86402048       6.70864284       6.96255386      -0.81176521       0.66008866      -1.50090385
Si       6.59783382       9.20780699       3.94913699       1.33339408       2.09354907       1.33261165
Si       6.58113267       9.57461438       9.51306874       1.24592675      -0.01772633       0.08263763
Si       8.04643174      -0.05945348       2.82699647       0.39298259      -0.51199120      -0.62078971
Si       8.14251778      -0.03649206       8.18633810       0.02409380      -0.62105015       0.03107803
Si       8.19094708       2.60831844      -0.00717252       0.82896010       0.72416975       0.54767709
Si       8.10403131       2.56792279       5.38957818      -0.21839334       1.34098389       0.03859120
Si       8.10909204       5.40247857       2.69411293       0.37857086      -0.47028836       0.76487753
Si       8.14107271       5.33241836       8.18324083       0.92984646       0.10366861       0.91979175
Si       8.15937769       8.33428388       0.02596487      -0.32398974      -0.71054077      -0.56158199
Si       8.06351988       8.07023249       5.40552731      -0.08384215      -0.00327581       0.54961886
Si       9.46140279       1.37448195       4.02379273       0.54325605      -0.16016964      -0.63186767
Si       9.54299540       1.25942438       9.57899480       0.62766753      -0.13553435      -0.29324928
Si       9.46959672       4.11525609       1.35910697       0.67804014      -0.42986701      -0.54102239
Si       9.40524893       3.99194737       6.76888252       0.28922895       0.22019831      -0.48766391
Si       9.41619740       6.73431195       4.08520395       0.51829367       0.03174898      -0.10813002
Si       9.47713792       6.83740033       9.52162331      -0.24832743      -0.29224248       0.09275321
Si       9.61152846       9.54918651       1.41639511      -1.90903805      -0.04030330       0.76986567
Si       9.45345862       9.45459677       6.72978204       0.22220976       0.47633221      -0.15306797
64
Lattice="10.862 0.0 0.0 0.0 10.862 0.0 0.0 0.0 10.862" Properties=species:S:1:pos:R:3:forces:R:3 pbc="T T T"
Si      -0.00347257       0.08191250      -0.10000904       0.45513154       0.28995654      -0.71977387
Si       0.04955268      -0.06431869       5.44743693       0.33982267       1.06921369       0.88145972
Si       0.01972614       2.71224704       2.75448819       0.85084573      -1.52835412      -0.21043598
Si       0.02133045       2.90282572       8.13548396      -1.35361328      -1.80825896      -1.50654162
Si      -0.09030351       5.43397197       0.13612380       0.48203927      -1.33105484      -0.83885530
Si       0.01143737       5.45968109       5.35200189      -0.29509956       0.35535062       0.00313218
Si      -0.08763069       8.28978510       2.68812397      -0.27877637      -0.28873963      -0.24855486
Si      -0.05090336       8.11139216       8.24308685       0.58485413       0.14744282      -0.33591311
Si       1.45783768       1.26745464       1.27266709      -1.06158076       1.94615451      -0.27559423
Si       1.44099693       1.37914617       6.82153009      -0.76313709      -0.17546097       0.57748248
Si       1.32467780       4.02812806       4.10599840       0.30386041       0.33022084      -0.04277793
Si       1.28934601       4.07272776       9.47541778       0.92585524       1.69598412       1.28850214
Si       1.19994893       6.75065781       1.41685761       1.06290657       0.67482305       0.74966521
Si       1.28062046       6.71946250       6.86383532       0.38204386       0.21616843      -0.01258393
Si       1.30616581       9.61033103       4.02700526       1.02797388      -0.98280450      -0.46347438
Si       1.42518824       9.54850276       9.43454027      -0.69229509      -0.04053266       0.10097688
Si       2.72713698       0.07463108       2.65695078       0.86217917      -0.86080597       1.05632917
Si       2.87199056       0.08634172       8.24009848      -0.77557374      -0.90295980      -1.42236062
Si       2.74400752       2.82424840      -0.08152213      -0.41507849      -1.57308817       0.04963571
Si       2.69553478       2.75400775       5.46325425       0.39249832       0.11245780       0.38243264
Si       2.67272989       5.38937963       2.79147762      -0.43457614       0.41925833      -0.58955160
Si       2.77959580       5.40451616       8.17697399      -0.25315942       0.03659809       0.03392317
Si       2.54872266       8.00860504      -0.07873908       0.49417415       0.31057484       0.57678923
Si       2.56857352       8.11785638       5.44765479       0.28962564       0.01714035      -0.33735222
Si       4.04231827       1.40519359       4.17066359       0.84068559      -0.19210810      -1.07321625
Si       4.18116331       1.35606065       9.54125282       0.85477624       1.03992548       0.48485411
Si       3.96541448       4.09260381       1.35538558       0.56830523       0.26340278       0.35137078
Si       4.15419178       4.04779292       6.83444001      -0.01442811       0.20450001      -0.64594929
Si       4.03847671       6.76441436       4.06677377      -0.36304276       0.33219381       0.52127564
Si       4.13517077       6.70614972       9.61815349      -1.01150553       0.95608797      -1.07632435
Si       3.93020790       9.42500868       1.26354995       0.53829899       0.29322727      -0.20874313
Si       4.02961278       9.40741496       6.77762363      -0.03588086       0.68234836       0.09778058
Si       5.54837727      -0.08438175      -0.01514717      -0.84534540      -0.13629991       0.01535142
Si       5.44844798      -0.05528150       5.45948624      -0.11801777       0.17014539      -0.17504237
Si       5.44561318       2.82282460       2.66111159      -0.60127629      -0.60527031       0.91889945
Si       5.60252390       2.72903297       8.13974124      -1.23789773      -0.79798470      -0.04244200
Si       5.39008349       5.37591990       0.02894573       0.77060588      -0.46542142       0.61055351
Si       5.47205346       5.43016893       5.34654427      -0.03750146       0.05112161       1.18777091
Si       5.28813850       8.08640119       2.62930788       0.54498481       0.89580508       0.81875682
Si       5.37923922       8.09947287       8.15993443      -0.33800647       0.26863100       0.49036608
Si       6.73581783       1.40058938       1.34892200       0.17468944      -0.16816971       0.00626419
Si       6.85538521       1.28677596       6.84599396       0.43232253      -0.50083232      -0.43504035
Si       6.88137787       4.05801737       4.10436213      -0.61681876      -0.04420746      -0.56634409
Si       6.77397606       4.08539012       9.49863617       1.15859983       0.98312033       0.25416661
Si       6.70011282       6.69032748       1.47795271       0.64047272       0.34522781      -0.98407853
Si       6.75231742       6.83153747       6.87782947       0.17628987      -0.10639619      -1.48112088
Si       6.82576812       9.53590337       3.97827798      -0.80579517      -0.40456026      -0.05505267
Si       6.85919063       9.44215280       9.38877432       0.14047073      -0.24495023       0.82656201
Si       8.15117057       0.06520416       2.63621825       0.38959070      -0.00838842       0.26344865
Si       8.34988736      -0.13835830       8.11396724      -1.11259398       1.51973356       0.45374188
Si       8.12851559       2.72571963       0.02141998      -0.48803985       0.68064936       0.55671618
Si       8.15212002       2.63553307       5.38357302       0.20101637      -0.39150202       0.51436173
Si       8.17400192       5.40240612       2.73437861      -0.22194202      -0.01744874       0.13648540
Si       8.20159751       5.58747230       8.14159992      -0.06696492      -1.48373042       0.17691353
Si       8.15593571       8.11604643       0.10337747      -1.26464006      -0.09287548      -0.39186116
Si       8.12435923       8.21911073       5.44511136      -0.49243324      -0.73266676      -0.23237239
Si       9.60041563       1.27466875       4.11581426      -0.74937297       0.43489042      -0.58637991
Si       9.41857716       1.52019783       9.48570498       1.36097947      -0.99894708      -0.85522949
Si       9.53403035       4.00057931       1.48900674      -0.80653653       0.26384146      -1.06392277
Si       9.47552663       4.13316969       6.61624447      -0.14223332       0.07075128       1.23007052
Si       9.43886269       6.82114073       4.03428626       0.55999832       0.64753810       0.32832723
Si       9.50828688       6.77944061       9.66595206      -0.26066816       0.28954697      -0.60622734
Si       9.49460532       9.64748515       1.16585875      -0.13522149      -0.53753410       1.39606314
Si       9.59031797       9.44320068       6.73423353       0.28315554      -0.59267890       0.14268769
64
Lattice="10.862 0.0 0.0 0.0 10.862 0.0 0.0 0.0 10.862" Properties=species:S:1:pos:R:3:forces:R:3 pbc="T T T"
Si      -0.00303854       0.02162917       0.02699370      -0.00131316      -0.68026633      -0.61241277
Si       0.02395559       0.10847000       5.32491944      -0.09683916      -0.25657649       0.67173455
Si       0.06320403       2.85543038       2.72916224      -0.45041796      -0.91805910      -0.72716676
Si      -0.09221924       2.84964616       8.05399369       0.45174755      -1.05772850       1.44222812
Si      -0.04557803       5.48244571       0.07634117       0.20055964      -0.31695925       0.19788817
Si       0.10619671       5.55180010       5.56786422      -0.73088287      -0.56023193      -1.08824983
Si       0.08486066       8.00837861       2.62270280      -0.47204872       1.05500308       0.83486575
Si      -0.02181501       8.24431872       8.09000393       0.35484874      -0.17670968       0.89214574
Si       1.34886834       1.38920181       1.30078021      -0.52091644       1.09264932       0.14902474
Si       1.33806836       1.38767762       6.92737898      -0.50692255       0.16937661      -1.16026726
Si       1.33749976       4.10478695       4.14109327       0.86455450       0.23162659       0.64151808
Si       1.26236602       4.10830026       9.56948109      -0.16617295      -0.05106449      -0.34733798
Si       1.50434918       6.74904234       1.34229400      -0.04753069      -0.00603886      -0.64136464
Si       1.42303486       6.84750899       6.90697364      -0.14956836       0.10217921       0.39684973
Si       1.36637421       9.61691871       3.93489365      -1.04094886      -1.48191440       0.96125428
Si       1.47014618       9.45766844       9.55764768      -0.87851989       0.12020844       0.00930149
Si       2.62147886       0.05811509       2.61354972       0.10630195      -0.07763778      -0.00058698
Si       2.66746008       0.01818909       8.17063646       0.98103252      -0.24767039       0.30165764
Si       2.69959172       2.82239512       0.03043356      -0.47483883      -0.78658215      -0.58089729
Si       2.74471714       2.68884413       5.54206202      -0.62927447      -0.03531700      -0.78748555
Si       2.75516162       5.37878323       2.72080707       0.33140518       0.10527110       0.68064600
Si       2.70542997       5.40162035       8.24957245       0.03368495      -0.41313455      -0.78929105
Si       2.93150500       8.11590154      -0.01549738      -0.69976101      -0.32212512       0.07420293
Si       2.58678294       8.23090885       5.49114009       0.49185199       0.24389876      -0.95103167
Si       3.89483722       1.23423062       4.05619039       0.90337844       0.76228207       0.63962187
Si       4.01360892       1.43224963       9.54310208       0.36040739      -0.40973690      -0.14089439
Si       4.10205058       4.02467471       1.33945110       0.58897686       1.10550468      -0.02624170
Si       4.12098501       4.10611079       6.74106288      -0.93699460       0.16378335       1.02783994
Si       4.00639375       6.83201521       4.20415579      -0.08805543      -0.52773120      -0.29807091
Si       4.18861322       6.62048175       9.49231494       0.05721048       1.37321736      -0.01781229
Si       4.01114888       9.55216737       1.47335231       1.63949539      -1.04440520      -0.46388056
Si       4.05415766       9.51733068       6.73675924       0.00685712       0.51405392       0.22919786
Si       5.41349566       0.00881366       0.05938210      -0.61123027      -0.03461158      -0.44330618
Si       5.44441305      -0.03960971       5.30426121      -0.15718782       0.16955742       0.63500945
Si       5.27311649       2.59563252       2.71832750       0.03617982       0.10241741       0.42323493
Si       5.36915416       2.77819427       8.13341498       0.56018678      -0.31868621       0.48089982
Si       5.59675227       5.39041803      -0.05498389      -0.35319146      -0.45068685       1.07748804
Si       5.43252361       5.47021150       5.50906978       0.26070028      -0.19298344      -1.18119407
Si       5.46692357       8.00609235       2.82474557      -0.08010134       1.28034801      -0.56428166
Si       5.39606531       8.14795455       8.08673219      -0.14094912      -0.31506815       0.21940373
Si       6.70269340       1.36119822       1.41317946       1.04190865      -0.55247915      -0.15495557
Si       6.69734474       1.42350715       6.74297712       0.62036694      -0.76718304       0.19809260
Si       6.64816354       3.89529755       4.08932847      -0.12494256       1.68077942      -0.28705574
Si       6.89969978       4.08161417       9.43382567      -0.28201363      -0.82729638       0.11437134
Si       6.88307616       6.73847330       1.39111722      -0.41592130      -0.10816862       0.19074397
Si       6.81825502       6.81060814       6.77479374      -0.34640570       0.06710407       0.38462488
Si       6.91983153       9.47322910       4.08862710      -1.11389361      -0.28131342      -0.35830354
Si       6.69580299       9.52016252       9.45923692       0.62729748      -0.25407797       0.46940068
Si       8.19472826      -0.07605499       2.69782850      -0.16504615       0.58209698      -0.51190542
Si       8.17130264      -0.03313157       8.13843312      -1.09047541       0.30879833      -0.62415024
Si       8.14281746       2.63830575       0.01843119      -0.25210073       0.32607803      -0.06953479
Si       8.11051214       2.70600857       5.33369939       0.68066860      -0.55505477       0.60619902
Si       8.15065431       5.34523006       2.82786226      -0.90298055      -0.05645805       0.10820244
Si       8.16114514       5.46537366       8.08394702       0.76156592       0.05827854       0.41889666
Si       8.12516940       8.07688716      -0.06016655      -0.12568056       0.89482333       0.10335711
Si       8.14628981       8.10616040       5.44312731       0.57046320       0.05682793      -0.29189351
Si       9.53459080       1.39548351       3.91899722      -0.22679776       0.23122410       0.63689456
Si       9.48009195       1.33637987       9.45608037       0.62568838       0.34022399       0.18293786
Si       9.41119286       4.07259710       1.40633683       0.80569163      -0.08370018      -0.53750727
Si       9.49520737       4.11649230       6.70086446      -0.67601595       0.44401474      -0.64496282
Si       9.51275356       6.77041496       4.08306782       0.70944647      -0.08098664       0.24777831
Si       9.57138280       6.80085308       9.50963713      -0.38537638       0.13609085      -0.81120431
Si       9.52225986       9.41240166       1.35274372       0.09499083      -0.00190399      -0.55491267
Si       9.47839488       9.52355936       6.68945863       0.57384852       0.53283012       0.02064709
64
Lattice="10.862 0.0 0.0 0.0 10.862 0.0 0.0 0.0 10.862" Properties=species:S:1:pos:R:3:forces:R:3 pbc="T T T"
Si       0.01893311      -0.10099432       0.04084396       0.01490559       0.52418185      -1.11013205
Si      -0.07541987       0.02742831       5.41974445       0.28733943      -0.23336834      -0.21766155
Si       0.09151649       2.74155891       2.77137535      -0.08662237       0.31400568      -0.29956638
Si       0.04605879       2.72163158       8.01843689      -1.07582978       0.38579537       1.40299044
Si      -0.05585238       5.34515915      -0.02131177       0.77727220       0.49827365       0.78997550
Si       0.13036942       5.45133792       5.39263518      -1.17856932       0.46844949       0.82114156
Si      -0.08356931       8.06589679       2.56570681       0.42188078       0.71381103       0.45515109
Si       0.00519551       8.09857782       8.20329294      -0.02959307       0.21192564      -0.19986928
Si       1.27255443       1.32825567       1.30777657       0.87235969       0.25040289       0.87669875
Si       1.30275177       1.40835215       6.73213074       1.28840426      -0.95049498      -0.89110289
Si       1.46933426       4.19996577       4.06590978      -0.12587944      -0.42212490      -0.98617058
Si       1.30403349       4.04138903       9.51453546       0.37753187      -0.29333524      -0.35706790
Si       1.39499778       6.83834623       1.29311794      -0.97477395      -0.24850990      -0.95325017
Si       1.44584822       6.75207596       6.87357028      -0.22682171       0.43091878      -0.35363203
Si       1.23676961       9.49642966       3.96582962       0.36143974       0.47349009       0.17081440
Si       1.41493993       9.56577987       9.42653683      -0.33820634      -1.32992509       1.24154376
Si       2.76228450       0.12169382       2.75288764      -1.42530678      -0.92715616      -0.37366612
Si       2.69411076      -0.09664856       8.02537991       0.39621168       0.93798067      -0.86733160
Si       2.67990770       2.66222360      -0.01301538      -0.64829536       0.06015610       0.01680132
Si       2.73406216       2.76391411       5.32787553       0.34243597      -0.18130196       1.21123954
Si       2.70382910       5.63461088       2.65816317       0.65084684      -1.32814307       0.58566390
Si       2.75900011       5.35530988       8.23623639      -0.88184646       0.51031237      -0.05437675
Si       2.83570409       8.22213525       0.11273374      -0.55008686       0.04855230      -1.30970390
Si       2.65498769       8.22903132       5.39151523      -0.20438814      -0.81187137      -0.25231644
Si       4.11936266       1.28952080       4.13130270      -0.30452229       1.23419106      -0.12798487
Si       3.90388927       1.30372609       9.43657670       1.82976994       0.07463659       0.01154808
Si       3.93487053       3.97922971       1.45861975       0.06424205       0.21026768       0.11878460
Si       4.05191193       4.20081214       6.77431711       1.10136587      -1.24568490      -0.43755254
Si       4.09562234       6.87324949       4.05209275       0.09109508       0.73712867      -0.06358649
Si       4.05894682       6.73604538       9.52355687      -0.28321153       0.57087633       0.57390893
Si       4.10234422       9.57529770       1.50100457       0.91950556      -0.28731513      -0.07252411
Si       4.15327885       9.40763023       6.68070667      -0.54662753       0.74634488       0.48532696
Si       5.42445196      -0.01951801       0.00851351      -0.90285194       0.15747213      -0.64455818
Si       5.45297710       0.09074918       5.49077824       0.20582931      -0.37496982       0.68278126
Si       5.42342319       2.67327616       2.76497220       0.00220515      -0.25362526      -0.48831704
Si       5.51525872       2.74904110       8.17255542      -1.87471240       0.09376968       0.10182347
Si       5.21454816       5.28378316       0.03818495       1.37437196       0.35717652       0.12210836
Si       5.45056617       5.53743997       5.36041527       0.05447266      -1.04640227       0.27432349
Si       5.61742876       8.24938311       2.82837345      -1.19960801      -0.48081254      -0.64154649
Si       5.35425412       8.05293634       8.12173900       0.80979790       0.43028728       0.45331912
Si       6.75341287       1.34545213       1.29730013       0.79562331       0.17127652       0.54240067
Si       6.79817290       1.47859661       6.79755027       0.50345819      -0.97308050       0.27646666
Si       6.82724299       3.99116117       4.05145303      -1.28479215       1.11873999       0.19200025
Si       6.78904184       4.01578707       9.61632952       0.00184973       0.79424699      -0.34884798
Si       6.68478753       6.68597886       1.35763247      -0.03889527      -0.14300628       0.55343166
Si       6.78932961       6.74104833       6.84885400       0.57174520       0.14285975      -0.38180331
Si       6.81753788       9.66144574       4.19201890       1.09614186      -0.34719664      -0.70110731
Si       6.75325115       9.49724803       9.47881706      -0.17280971      -0.46105443      -0.16458737
Si       8.25124528      -0.02391368       2.64893157      -0.88259522       0.67755540       0.36953189
Si       8.15682822      -0.00431766       8.14114827      -0.05929174       0.81293578       0.57937181
Si       8.21566293       2.74438456       0.02283061      -0.64622436      -0.76948574       0.24445310
Si       8.11348548       2.79527780       5.43274380       0.74743459      -1.04020084      -0.12184654
Si       8.12676677       5.33993093       2.74544217       0.40495084       0.86893763      -0.51456211
Si       8.19473683       5.35361445       8.19532088      -0.72354124       0.33317306       0.15379780
Si       8.02301544       8.03652062       0.01808262       0.25794025       0.30302202      -0.59177692
Si       8.13038396       8.18233763       5.45827559       0.19090994      -0.45303665       0.11502869
Si       9.51755410       1.42908901       4.04620862      -0.36159560      -0.18239976       0.16985577
Si       9.58701464       1.40865478       9.59409614      -0.06883113      -0.65130038      -1.18788355
Si       9.51502325       4.01417128       1.38767307       0.35298259       0.36343610       0.67228101
Si       9.47804477       4.09609844       6.73596124       0.96848244       0.30044559      -0.05536311
Si       9.54129161       6.80168881       4.03641911      -0.65093977      -0.41226953       0.51249370
Si       9.50388386       6.72304021       9.57694556      -0.37953342       0.62622654      -0.54147306
Si       9.46465236       9.44790183       1.23482801      -0.47205215      -0.60960146       0.46853921
Si       9.48815132       9.51873982       6.81552081       0.46405261      -0.49558895       0.06557193
64
Lattice="10.862 0.0 0.0 0.0 10.862 0.0 0.0 0.0 10.862" Properties=species:S:1:pos:R:3:forces:R:3 pbc="T T T"
Si       0.09297136       0.05242178       0.03413241      -0.37281111       0.82131940      -0.18920797
Si       0.00018066      -0.08818077       5.49457726       0.77976907      -0.04301292      -0.83531060
Si      -0.02728512       2.79471449       2.66225308       0.34550630       0.28374294       0.31558849
Si       0.00048139       2.71916244       8.19550012       0.18071950      -0.29962306       0.10871685
Si       0.13271876       5.40422453      -0.00364270      -0.69307727       0.25031142       0.04479216
Si      -0.10465871       5.40682629       5.39759902       0.30948993      -0.05993850       0.02703546
Si      -0.13785162       8.12265760       2.58803444       0.51107010       0.20907532       0.65809071
Si       0.01477569       8.20389885       8.29024676      -0.21026494      -1.14585477      -0.09081532
Si       1.41385993       1.52046427       1.33791924      -0.38801917      -0.99343026       0.46062494
Si       1.30359490       1.37338586       6.75579491      -0.56622468      -0.57991330       0.85873249
Si       1.41769890       4.12455415       4.08060043      -0.36828483      -0.26199887      -0.27247853
Si       1.45576860       4.03530990       9.48752133      -0.48728200       0.96653999      -0.81141580
Si       1.41155753       6.72723913       1.48758130      -1.08675851       1.22217774      -1.48722637
Si       1.18021930       6.76165020       6.83174279       0.43694570       0.40325828      -0.28559202
Si       1.36214651       9.42401546       4.01529070      -1.30802519      -0.56236337       0.64777832
Si       1.33624000       9.57652878       9.51645637       1.24207463      -0.14215329       0.44309396
Si       2.58081133      -0.06167661       2.71837354       0.81773027       1.43533741      -0.17039631
Si       2.69022671       0.06024122       8.10667492      -0.11128936      -0.42120553       0.05462457
Si       2.75728621       2.74608655      -0.05681913       0.51641104      -0.63551762      -0.07442215
Si       2.64415718       2.57661400       5.42779493       0.97073818       0.76995541      -1.15699111
Si       2.78931001       5.48605480       2.67078918       0.13749769      -0.80218062       1.73223261
Si       2.71838148       5.51640444       8.05631540      -0.08975573      -0.59874325       0.57351900
Si       2.72405510       8.21488531       0.11915764      -0.67106988      -0.34188705      -0.60212305
Si       2.63999467       8.06857321       5.45147815       0.73631734       0.21331060       0.08960666
Si       4.12322105       1.18465645       4.08141801      -0.47761129       0.45955402       0.15149934
Si       4.07172062       1.35671366       9.41338546       0.59813953       0.16692007       0.77504868
Si       3.96995075       4.05971465       1.37415455       1.63415191      -0.19955667      -0.24659604
Si       3.98036808       4.02216408       6.70976818      -0.04954551       1.14543808      -0.65044372
Si       4.13764637       6.74806543       4.07632949       0.19003304       1.10940327      -0.21193740
Si       4.00831350       6.89662542       9.52101507       0.40693477      -0.58521412      -0.05331706
Si       4.02676639       9.60063190       1.41580153       0.84112416       0.14636862      -0.76221343
Si       4.10653530       9.55992331       6.81413733      -1.30233607      -0.36164060      -0.76054245
Si       5.50685337       0.01844347      -0.02270202      -0.74855752      -0.35296872      -0.48132882
Si       5.54431076      -0.05168061       5.52017017      -0.89897223       1.53149612       0.62941918
Si       5.43073065       2.65257892       2.73257115      -0.82431576      -0.13084563      -0.58095967
Si       5.31120724       2.83288272       8.07257214       1.27561256      -1.35164016       0.20147461
Si       5.40778267       5.40578852      -0.02728623      -0.60205285       0.21199032       0.06134343
Si       5.49577791       5.39759622       5.40033005      -0.25449945      -0.25555586       0.40876533
Si       5.49502388       8.29095765       2.64053104      -0.31898167      -0.96700020       1.20007013
Si       5.36356134       8.18717039       8.08506560       0.73709853      -0.42164705       0.90851457
Si       6.81903804       1.32213881       1.36332245      -0.11417204      -0.20291352       0.86357660
Si       6.93425743       1.42218569       6.77872992      -1.50099080      -0.37901806       0.77209324
Si       6.77251230       4.01712367       3.99243638       0.54783431       0.32349098       0.62770829
Si       6.73115663       4.02508291       9.48270021      -0.25072652      -0.06538850       0.38116620
Si       6.76723186       6.78119811       1.31177842      -0.49928021       0.07132813       0.60401307
Si       6.80541924       6.78477244       6.85909728      -0.44391557      -0.31689231      -0.35105110
Si       6.77818212       9.51866897       4.25817177       1.46767235      -1.10205757      -1.87095309
Si       6.85711975       9.49533770       9.40347799      -0.60260022       0.16957236       0.22438395
Si       8.21036052       0.00005768       2.81452149      -0.30114956       0.11232265       0.01353388
Si       8.27441885       0.01420142       8.10924206      -0.37366909      -0.64951650      -0.38226398
Si       8.06729006       2.63923006      -0.01581256       0.29505488       0.43422250      -0.48225265
Si       8.17421428       2.69796741       5.40661557       0.90727533       0.55070228      -0.67264884
Si       8.12164883       5.46003468       2.69999918      -0.84713705      -1.43934959      -1.37712533
Si       8.07598608       5.40799698       8.24453500       1.27295149       0.47994239      -0.05830293
Si       8.06430312       8.17233496       0.05165653       0.34532631       0.72325651      -0.27509097
Si       8.20238302       8.07466340       5.49629507      -0.35552337      -0.04334727      -0.38991746
Si       9.67592588       1.34550082       4.09666763      -0.93277411       0.17886264      -0.01584170
Si       9.49087028       1.32504516       9.52981794       0.69342889       0.31629297       0.24580609
Si       9.44399460       4.06136087       1.21835795       0.27362794       0.49781186       0.67367632
Si       9.52028634       4.03488074       6.86274421      -0.82974499       0.54642146      -0.38976579
Si       9.39091262       6.71717820       3.97263627       1.22120556       1.16171592       1.15034162
Si       9.47753306       6.89033022       9.67447742       0.50452940      -1.27572791      -0.84997894
Si       9.47956949       9.63706554       1.24209806      -0.30655872      -0.82765141       0.87233902
Si       9.62497517       9.36335583       6.80980025      -1.00829339       0.90361243       0.05930078
64
Lattice="10.862 0.0 0.0 0.0 10.862 0.0 0.0 0.0 10.862" Properties=species:S:1:pos:R:3:forces:R:3 pbc="T T T"
Si       0.02891456      -0.00830692       0.08434291      -0.36603156       1.05084580       0.26577267
Si      -0.03643920      -0.04142082       5.43215996       0.32791014       0.77682198      -1.03658014
Si      -0.12930646       2.74736324       2.70033293       0.20618538      -0.59393149       0.49811582
Si       0.22825895       2.77662875       8.08314151      -2.08967488       0.33447663       0.04969412
Si       0.10486361       5.41329246      -0.09304422      -1.16634030      -0.70323744      -0.15293527
Si      -0.08896194       5.36237508       5.41547992       1.26446201       0.54504842       1.06191644
Si      -0.02535135       8.17850945       2.67838007       0.62352455      -0.58745925       0.10750175
Si       0.05740763       8.06353454       8.18030342      -0.93768938       0.54534056       0.30757694
Si       1.33087425       1.38350955       1.52245932       0.02699606      -0.67252906      -0.43611206
Si       1.30129357       1.35125895       6.75548761       1.37343123      -0.67631380      -0.63084059
Si       1.20556329       3.99216428       4.12202310       0.99248503       0.63964435      -0.83799758
Si       1.50362103       4.03233926       9.46140908       0.13584282       0.65929117       0.33114330
Si       1.27332999       6.75830284       1.27902473       1.00222428       0.71726112       0.93444810
Si       1.35607658       6.71400737       6.86626610      -0.26194092      -0.45573617      -0.85663338
Si       1.38900596       9.45324684       4.05618853      -0.29439266      -0.17551289       0.63214653
Si       1.24633671       9.51709705       9.58789445       1.01455533      -0.83604486      -0.44903721
Si       2.74586377      -0.02662963       2.80233417       0.50322534       0.01619835      -0.69349994
Si       2.60800987      -0.08894770       8.15758769       0.08129938       0.46962266      -0.60129984
Si       2.64352782       2.65889704       0.08230367       0.27175687      -0.69694232      -0.86945162
Si       2.70273127       2.79090521       5.41641418       0.31872944      -0.81523192       0.29723218
Si       2.64388804       5.41974445       2.72304205      -0.70709495      -0.00720994       0.34263962
Si       2.82234437       5.41795028       8.08844132       0.24280239      -0.70011851      -0.18656787
Si       2.70372983       8.10166948      -0.04464239      -0.22700086       0.88219569       0.90207393
Si       2.68345679       8.00223492       5.45743648      -0.27592054       1.24176957       0.36405864
Si       4.10449257       1.36695096       4.11155201      -0.36929111       0.59458383      -0.17385485
Si       3.99571596       1.34952690       9.37717460      -0.40762895      -0.25159079       1.26029048
Si       3.91161488       4.05546933       1.34331569       1.01786118       0.36582937       0.13543236
Si       4.25459490       4.12682792       6.62695312      -1.16511913      -0.68859215       1.43102918
Si       4.01863912       6.74354334       4.13730505       0.19372369      -0.41772225      -0.68867441
Si       4.00628045       6.74698527       9.53702009       1.04448860       0.23638678      -0.42866183
Si       4.16687981       9.49629207       1.34038568      -0.94504774      -0.46359827       0.37599351
Si       4.03955120       9.49858103       6.75684940       0.47346544      -0.12621184      -0.17695181
Si       5.39018245       0.00626064      -0.07943294      -0.07076091       0.44168019      -0.10772448
Si       5.53782876       0.12240964       5.40976846      -1.03827381      -0.32008721       1.59114253
Si       5.35197516       2.75953522       2.66845646      -0.19666450      -0.06000910       0.03466331
Si       5.40924145       2.75398753       8.22938714      -0.46148204      -0.23544280      -1.33508857
Si       5.37750336       5.37054828      -0.00799497       0.03372972      -0.27347034       0.08392146
Si       5.52615273       5.49115475       5.39177310       1.03891629       0.21380261      -0.77432396
Si       5.41104997       8.07938731       2.83234153       0.34362419       0.55438311      -0.53229040
Si       5.41953384       8.10756939       8.17192035       0.09321421       0.25548587      -0.29305463
Si       6.64710768       1.46003376       1.25406111       1.31750432      -0.72814192       0.21328808
Si       6.79657674       1.35926678       6.97547452       0.39933215       0.38518607      -1.10053740
Si       6.82842845       4.07617381       3.90935069      -0.80638771       0.05800918       1.04137366
Si       6.79287441       4.04285835       9.44004376       0.70123296       1.15994600       0.73645194
Si       6.74457042       6.62227498       1.44153960      -0.15604727       1.60567612      -0.71091580
Si       6.91264086       6.87315969       6.74452687      -0.50918255      -0.41253825       0.53793268
Si       6.77511818       9.63469774       4.10336177       0.08937997      -1.45030983      -0.69526374
Si       6.79630422       9.49167617       9.55090025      -0.25384908       0.59120521      -1.00813647
Si       8.10433892      -0.09641895       2.61908412      -0.57284267       1.89209060       0.03855120
Si       8.25539112       0.09925555       8.30321758       0.03077503      -0.82830361      -0.45424801
Si       8.20281133       2.83855810       0.02713499      -0.46794021      -1.10622870      -0.65241085
Si       8.06834063       2.71329492       5.33035282      -0.17829166       0.08827206       1.63249285
Si       8.19232701       5.48172751       2.77000695       0.97267415      -0.04525945      -0.23956690
Si       8.27125702       5.40476879       8.08557646      -1.98380156       0.53910626       0.47026817
Si       8.07355991       8.14144387      -0.04219987       0.52250999      -1.01935639       1.42887309
Si       8.16475661       8.30262352       5.42439158       0.89531249      -0.42030382      -0.07710933
Si       9.39304627       1.37105717       4.04717141       0.46061574      -1.15274113      -0.30183960
Si       9.69681468       1.48952021       9.50492846      -0.46725239       0.04929581       0.73012402
Si       9.51076512       4.13039564       1.36425179       0.32268714       0.95970002      -0.33308638
Si       9.47899269       4.10076822       6.77399950       0.52304052      -1.90592814      -0.56618140
Si       9.63897619       6.78366704       4.11901975      -1.66472864       1.30915251      -0.40020560
Si       9.45243456       6.72718441       9.51248114       0.73518962       0.60415084       0.20563304
Si       9.51118852       9.49467840       1.36512160      -0.61270897      -0.48612835      -0.88386299
Si       9.60710295       9.54857891       6.85066188      -0.94132067      -0.47022673       0.64316328
64
Lattice="10.862 0.0 0.0 0.0 10.862 0.0 0.0 0.0 10.862" Properties=species:S:1:pos:R:3:forces:R:3 pbc="T T T"
Si       0.03747739       0.07531060      -0.14333548      -0.35312717      -0.41898102       0.39285348
Si       0.12218162      -0.02720431       5.44703862      -0.83407991      -0.57807988       0.39462110
Si      -0.00840153       2.63331820       2.72144404       0.61824916      -0.00362873      -0.19731778
Si      -0.18943772       2.79383151       8.06452849       0.98265914      -0.74559456      -0.15806564
Si      -0.11487501       5.35389629      -0.08227478       0.93493724       0.69418115       0.68153061
Si       0.01662082       5.41990956       5.29391701       0.26355184       0.58446822       1.18425061
Si       0.06875361       8.09863269       2.63162038      -0.57089522       1.26328542       1.06361325
Si      -0.03166697       8.17822550       8.06657165       0.73769237      -0.61314151       0.87567534
Si       1.39620917       1.37480692       1.25065676      -0.27929272      -0.15113245       0.64623022
Si       1.34349545       1.29476574       6.85134595      -0.50251505       0.51993541       0.83498459
Si       1.37814766       4.05833070       4.03981468      -0.48789994      -0.79676911       0.29466113
Si       1.29911679       4.07027174       9.37470652      -0.01559822       0.44943477       0.30608573
Si       1.37417180       6.76306887       1.39945509       0.04440377      -1.22990878      -1.36346539
Si       1.38953799       6.82306275       6.79283303      -0.14969511       0.10585912      -1.47068024
Si       1.46920477       9.48058303       4.14745975      -0.38161640      -0.65780353      -0.80136943
Si       1.36466799       9.38683579       9.52695747       0.08038282       0.83881749      -0.55657516
Si       2.68750806       0.00894669       2.73940420       0.03977884       0.38125839      -0.56547403
Si       2.77517505       0.01294436       8.22545970      -0.70254748      -1.04338759      -0.27876368
Si       2.69783797       2.76852927      -0.08934570       0.06547124      -0.19615696       0.17227618
Si       2.56313295       2.73077872       5.56947213       1.58400643       0.29199564      -0.55507058
Si       2.70083020       5.43879785       2.80361134       0.51358922      -0.60570710      -1.19772626
Si       2.70962799       5.58559690       8.19731583       0.02682552      -1.22150218       0.01339310
Si       2.74616354       8.02901239      -0.03994738      -0.69270421       0.68554625       0.96960664
Si       2.94574289       8.10413767       5.37466607      -1.48548115       0.27452572       1.14704586
Si       4.01489932       1.40051477       4.10042986       0.50216141       0.18479495       0.25114314
Si       4.09044011       1.31103222       9.55559813       0.55196805       0.81034533      -0.18376931
Si       4.08227633       3.96680643       1.39380914      -0.83669746       0.66257077       0.25213561
Si       4.07602469       4.01954793       7.01028909      -1.02707145       1.26328067      -1.70238058
Si       4.13156665       6.69123889       4.06661242       0.73660715       0.10054595       0.17919985
Si       4.12283253       6.81212587       9.54082117       0.75024770       0.14323592      -1.09650372
Si       3.96311986       9.44501353       1.36640496       0.76810849       0.15175436       0.37867833
Si       4.12950096       9.43071818       6.91158436      -0.17496318       0.87687571      -0.92608730
Si       5.41342417      -0.04822074       0.04264237      -0.50384016       0.48877229       1.05196235
Si       5.42887265      -0.05837640       5.44132552      -0.52250420       0.87121673       0.32427036
Si       5.55285036       2.77722286       2.73030818      -1.48902174      -0.76321463       0.63353093
Si       5.47557895       2.69694562       8.12725382       0.10154982      -0.30919091       1.75697361
Si       5.28160375       5.36564778       0.01936021       0.38279757       1.20673848       1.00464760
Si       5.45738086       5.47143771       5.56335489      -0.76140164      -1.26075969      -0.31255819
Si       5.43174937       8.17221489       2.81320532      -0.49164270      -0.17071107      -0.98828853
Si       5.59438706       8.18205960       8.10855143      -0.34463205      -1.06701511       0.78998823
Si       6.78780642       1.37731659       1.42971540      -0.27605081      -1.01584122      -0.35025308
Si       6.77766988       1.45056266       6.73195780       0.21336378      -0.58803634      -0.82364244
Si       6.76507551       4.12574237       4.10413231       0.38184450       0.74080266       0.00510184
Si       6.68049617       4.15176281       9.63311460       0.73011557      -0.86740092      -1.54098031
Si       6.69296485       6.87687864       1.31668786       0.82555305      -0.45295426      -0.17838953
Si       6.91312924       6.73367736       6.76283762      -0.19299303       0.61145568       0.63521452
Si       6.78939978       9.51014689       4.09822251       0.81234258      -0.30369367       0.31109219
Si       6.75456510       9.58863255       9.54151958      -0.47739348       0.44338525      -1.23148303
Si       8.15340550      -0.03631807       2.68893403       0.57920853      -0.23837177       0.11831504
Si       8.00862812       0.00558187       8.07872679       0.81340047       0.48147597       0.19993875
Si       7.97725050       2.71499331       0.03548646       1.64309581       0.25212548      -0.08535426
Si       8.17340856       2.76657973       5.32495331      -0.05199207      -0.75624762       0.33948922
Si       8.16719919       5.45715972       2.72315270      -0.52422909       0.18824091      -0.62573355
Si       8.14243412       5.37333492       8.17284641      -0.10002132       0.38951645       0.59598086
Si       8.10266751       8.32260113      -0.14379279       0.65515546      -1.90393919       1.55582571
Si       8.24726111       8.08614289       5.45117530      -0.34759502       1.04301822      -0.24042719
Si       9.56592052       1.25208871       4.12137581      -0.41749201       0.38194316      -0.42920769
Si       9.39474418       1.39148727       9.43384340      -0.33982515       0.06268111       0.25813343
Si       9.54222397       4.02054030       1.40428923      -1.14567115      -0.00645459      -0.36373343
Si       9.42818395       4.16905499       6.66752571       0.43067712      -0.17329498       0.02597225
Si       9.52931723       6.80769497       4.04491616       0.30271578       0.07517442      -0.63208733
Si       9.47711512       6.86930834       9.47263812      -0.17634208      -0.48786625      -0.18956932
Si       9.56398633       9.50044384       1.23753851       0.06207421       0.52712254       0.48235866
Si       9.51341678       9.52826729       6.84927708      -0.47770227       0.58040505      -1.08182333
64
Lattice="10.862 0.0 0.0 0.0 10.862 0.0 0.0 0.0 10.862" Properties=species:S:1:pos:R:3:forces:R:3 pbc="T T T"
Si       0.02423161      -0.01131481      -0.02206092      -0.07003187      -0.07926564       0.05580728
Si      -0.10472089      -0.10979681       5.42930737       1.17622569       0.91995446      -0.93646946
Si       0.08460856       2.75093794       2.68430326       0.58042118      -0.72540378       0.80671232
Si      -0.09173186       2.64342130       8.11995435       1.01538057       0.79470638      -1.18753715
Si       0.02178713       5.50276384      -0.00192060      -1.09155663      -1.37414721      -0.22858393
Si      -0.01878193       5.37048647       5.31606710       0.66370079      -0.26191848       0.61935205
Si       0.03993796       8.07074426       2.60589068      -0.88188514       0.42308436       0.44203937
Si       0.05368053       8.13710208       8.11739420      -0.58228956      -0.11578187       0.24018987
Si       1.48920291       1.39059047       1.31342210      -1.76273490      -0.19467527      -0.14147856
Si       1.31346379       1.40278287       6.62195419      -0.66661877      -1.06850532       1.26732356
Si       1.51664414       4.04148233       4.09531193      -0.97829967       0.20235107      -0.31752235
Si       1.22915814       4.02766609       9.45643905       0.38015724       0.69817336       0.05790663
Si       1.37717387       6.79589934       1.24807247       0.82118423       0.05785590       0.46543404
Si       1.36670918       6.78632081       6.64632465      -0.84577643      -0.00846334       0.49867810
Si       1.33986365       9.42824740       4.02862390      -0.86593933       0.25811894       0.32700687
Si       1.40598053       9.52279565       9.45483247       0.02958765      -0.17024731       0.36346357
Si       2.58982036      -0.02649273       2.71238717       1.30728788      -0.16719020      -0.04154047
Si       2.68988841       0.11103863       8.13515280      -0.11415865      -0.18827031      -0.46219094
Si       2.67251277       2.75521464      -0.07702756       0.61771167      -0.18357755      -0.26112344
Si       2.76684802       2.66115546       5.46953336       1.12065510       0.70885730      -0.35333322
Si       2.69187700       5.49885232       2.72204677       0.63900232      -0.07017462      -0.26366907
Si       2.60608457       5.55164034       8.18457382      -0.05441140      -1.14911595      -0.45893971
Si       2.81338074       8.13867283      -0.03565855      -0.82256538       0.19611575      -0.45666615
Si       2.69140169       8.27754396       5.51199481       0.77781211      -0.52470048      -0.67765558
Si       4.08818201       1.28238479       4.02015315      -0.82235747      -0.24281299       0.55078545
Si       4.10148166       1.32544045       9.51969642       0.00195714       0.74315073       0.03015635
Si       4.00646651       3.98291638       1.37337803       0.01434736       0.81584799       0.16953275
Si       4.04796422       4.13793974       6.91059189       0.05288830       0.00879913      -0.80283277
Si       4.07760979       6.91786194       4.07696535      -0.80799340      -0.82330079       0.64790092
Si       4.07677072       6.79573927       9.43471040      -0.01770754       0.17083531       0.35972517
Si       4.02782119       9.48949485       1.33221625       0.92798747       0.28952468       1.09638056
Si       4.08752138       9.56342185       6.86295647       0.16699609      -0.27373483       0.42672186
Si       5.45465083      -0.00814520       0.02523535       0.04510263       0.21506573       0.38908537
Si       5.39731083       0.00154890       5.44518597       0.78715185       0.08260653       0.44637504
Si       5.38186595       2.61686010       2.72103625       0.71463840       1.25075048      -0.11743781
Si       5.45859982       2.82562426       8.25799875      -0.49158893      -0.87490580      -0.50510874
Si       5.28135435       5.43857665      -0.00560981       0.73118352      -0.28819375       0.87704598
Si       5.41762637       5.40073763       5.31788530      -0.24994208       0.31641308       1.06920373
Si       5.48370764       8.15018514       2.82820316       0.01814014       1.16121237      -0.70732301
Si       5.53381839       8.08759861       8.18931038      -0.72772042       0.64462546      -0.78325181
Si       6.84253430       1.44617773       1.38091764       0.21640230      -0.90547338      -0.48166618
Si       6.79030827       1.42332855       6.87305476      -1.79346686       0.50065678      -1.07476162
Si       6.84178589       4.06031617       4.05744924      -0.47070878      -0.57791830      -0.16474210
Si       6.75276172       4.15621350       9.56095483       0.87099742       0.20455963       0.36928106
Si       6.71019915       6.70319067       1.50062801      -0.51067975       0.53997535      -1.55642051
Si       6.81193807       6.73692937       6.79542589      -0.17918084      -0.08969599      -0.70943512
Si       6.87262580       9.45648112       4.24910892       0.30990387       0.43878345      -0.72108251
Si       6.78797608       9.48961963       9.52969596       0.13185417       0.20907856       0.05122560
Si       8.22134100       0.05753723       2.77181165      -0.72976788      -0.88434967      -0.41651080
Si       8.02114353       0.07649204       8.09617948       1.14624887      -1.47805792       1.08382947
Si       8.23463277       2.78849328      -0.02978860      -0.55944005      -0.69014746      -0.34577516
Si       8.13349536       2.68615024       5.51067546       0.41789809       0.58791399      -0.66007547
Si       8.16101120       5.44637720       2.68063590       0.26817142      -1.01934222       0.55463269
Si       8.15565741       5.43367790       8.13795575      -0.46407843      -0.33270610       0.29587479
Si       8.05472152       8.04397858       0.01284551      -0.33597067       0.14724793       0.31381140
Si       8.30974350       8.07556723       5.55915434      -0.99726282       0.12525131      -0.45192575
Si       9.54439031       1.40474692       4.09723273       0.30012178       0.10587465       0.03674821
Si       9.52693530       1.30825923       9.39221837      -0.83423134      -0.33430099       1.47105090
Si       9.53388826       3.99841799       1.42393954       0.31183143       1.53421432      -0.70688969
Si       9.50261505       4.11441178       6.80285226       0.07432566      -0.39099854      -0.26540201
Si       9.49708902       6.74284785       4.06507104       0.45126790       0.53753640      -0.62524575
Si       9.41584841       6.76705262       9.51991756       1.13277034       0.44324713      -0.34695688
Si       9.43005427       9.43169160       1.25740673       0.65679617       0.70649717       0.88748711
Si       9.49153123       9.56210156       6.84382459      -0.14974381      -0.55150959       0.95878562
64
Lattice="10.862 0.0 0.0 0.0 10.862 0.0 0.0 0.0 10.862" Properties=species:S:1:pos:R:3:forces:R:3 pbc="T T T"
Si       0.05136554      -0.05436116      -0.01325674      -0.24406410       0.42907308       1.01389804
Si       0.00207136       0.08564135       5.42349166       0.31710793      -0.19306741       0.19467333
Si      -0.01755699       2.84400799       2.69543932       0.85252212      -0.80582370      -0.33934129
Si       0.05845926       2.84475598       8.30927502      -0.35930573      -1.27685760      -0.59185973
Si      -0.08303986       5.48529263      -0.05865665      -0.02803053      -0.49520161      -0.11175934
Si       0.03212460       5.36956475       5.43832381       0.20881324       0.54623112      -0.40048973
Si      -0.06956982       8.09403600       2.84245919       1.17990692       0.27596108      -0.55354446
Si      -0.05271415       8.33105188       8.19334726       1.42004064      -0.33977737      -1.11534864
Si       1.43160822       1.40231101       1.27694496      -1.48892554      -0.30861814       0.80021240
Si       1.35379504       1.37824038       6.89146420      -0.59457230       0.41183093      -0.30451974
Si       1.46990059       3.98542542       4.11048286      -1.00186265       0.55374038       0.01673407
Si       1.41332393       4.12169363       9.60798080       0.11548820       0.58982912      -0.08652860
Si       1.22325956       6.71423756       1.32192449      -0.35882876      -0.39867662       2.26468864
Si       1.33973919       6.91906597       6.69290828      -0.87466961      -0.02769361       0.48292342
Si       1.42663660       9.60851638       4.03478279      -1.21446537      -0.84196331       0.58254626
Si       1.44366039       9.58164534       9.52129824       0.30021203      -1.16621349       0.10065547
Si       2.68721696       0.02599038       2.66494664       1.11136913      -0.11911019      -0.81498969
Si       2.77105392       0.04995576       8.11427083       0.20473395      -0.28820713       0.10205513
Si       2.76975363       2.61478959      -0.07138616       0.04544831       1.91721808       0.94500572
Si       2.73644118       2.66284634       5.47775365       0.57229398      -0.80134593       0.06058576
Si       2.67389551       5.38229575       2.74196722       0.54881571       0.70654922      -0.36546540
Si       2.56776955       5.50094606       8.06430724       0.90704264      -0.05607293       0.83819608
Si       2.59600702       7.89286722       0.08012113       1.53665440       2.04929625      -1.80000696
Si       2.76183253       8.23130790       5.40497358      -0.28335599      -0.19637740      -0.76588433
Si       4.11536155       1.22632979       4.09144528      -0.27780031       0.11965772       0.49705063
Si       4.07400011       1.51516524       9.37127449       0.27476889      -1.66289255       0.28249074
Si       4.09787674       3.98268905       1.46743891      -0.08797460       0.19603528      -0.94609928
Si       3.99444165       4.09015658       6.83870650      -0.14889640       0.27816730      -0.38143445
Si       4.11775402       6.90143575       3.99408657      -0.27506524      -0.42612932      -0.01659847
Si       4.10726498       6.77761611       9.44701869      -0.52033857      -0.48697697       0.14647612
Si       4.04455616       9.46349087       1.16658468      -0.68522027      -0.35036864       1.36302291
Si       4.08129984       9.54257905       6.71142514       0.60473207      -0.30378543       0.82703102
Si       5.30571528       0.05385034      -0.07299719       0.46741523       0.79672588      -0.12487421
Si       5.56047839      -0.20107485       5.33168201      -0.90378692       1.53977233       0.77241077
Si       5.43184626       2.61539068       2.81225296       0.36414481       0.01120894      -0.58599818
Si       5.42487059       2.72931703       8.06850050       0.61361340      -0.13312191      -0.86585806
Si       5.46698590       5.32559441      -0.04538610      -0.71681554       0.08820695       0.06180549
Si       5.30741532       5.54481226       5.55912338       0.20919072      -0.95049245      -1.40171772
Si       5.54870325       8.15454233       2.54626897      -1.50927370       0.19810981       0.21157884
Si       5.48294112       8.14367012       8.08348463      -0.34382471       0.45202014       0.66339376
Si       6.80262619       1.29331431       1.34634771      -0.68205305      -0.50175273       0.81403301
Si       6.81660441       1.21266421       6.82020112      -0.48550040       0.81192489      -0.80087748
Si       6.70653618       4.06275266       4.11953687      -0.31179130       0.89353288       0.30446526
Si       6.79113659       3.92748835       9.46018494       0.23190562       1.24682813      -0.04709462
Si       6.78233240       6.79562803       1.23146059       0.49662923      -1.05308095       0.13811866
Si       6.79548923       6.60931347       6.91347834       0.23800043       1.59551943      -0.72092496
Si       6.81359662       9.33479153       4.04687380       0.29802748       0.29206390      -0.87629778
Si       6.73374743       9.62126188       9.52754930       0.26965204      -0.74781744      -0.68681484
Si       8.15096843      -0.11575307       2.77837218       0.62919152       1.40969747      -0.04466524
Si       8.20642175      -0.04831774       8.12277487       0.11744103       0.74240620       1.25252059
Si       8.04463953       2.71729603       0.04651055       1.55383346      -0.39025490       0.24027668
Si       8.05171785       2.78184946       5.49852852       0.97507735      -0.46835581       0.30352581
Si       8.08091013       5.43388830       2.71820944      -0.48983124       0.14982390      -0.02754790
Si       8.21990169       5.39778561       8.19870016       0.24607189      -0.18416247       0.67104564
Si       8.08866421       8.25194708       0.02328454       0.80688960      -0.22287143      -0.55504266
Si       8.07444226       8.15668010       5.47621925       0.69582770      -1.80977756       0.61486802
Si       9.55834308       1.50549088       4.12443260      -1.17525457      -0.60522233      -0.44860933
Si       9.55963242       1.36630447       9.60626817      -0.64348569       0.16488634      -0.62720184
Si       9.48116999       4.17424966       1.37725769      -0.60090494      -0.44911485      -0.55477970
Si       9.58486364       4.09375736       6.85599339      -0.57982717      -0.43929130      -0.25616192
Si       9.44589837       6.72225883       4.08464488      -0.15838991      -0.02049824       0.95005058
Si       9.56759511       6.93075370       9.44643083      -1.47538153      -0.42238024       0.71622062
Si       9.55256430       9.44744738       1.43816181      -0.14808742       0.32906572      -0.51768060
Si       9.47765318       9.52545826       6.73850531       0.25472241       0.14797149      -0.49654229
64
Lattice="10.862 0.0 0.0 0.0 10.862 0.0 0.0 0.0 10.862" Properties=species:S:1:pos:R:3:forces:R:3 pbc="T T T"
Si       0.06198359       0.14453713      -0.17418953       0.18818073      -1.42980710       1.46954608
Si      -0.02772883       0.02260492       5.54167826       0.12433677       0.12692120      -0.44048925
Si      -0.10330825       2.53349490       2.69841689       0.26287287       1.65099421       0.00210334
Si       0.03112562       2.75025308       8.13556111       0.03232531       0.06187377       0.36114495
Si       0.00165188       5.59316932      -0.00287994       0.35268205      -0.64576024       0.64482086
Si      -0.03934782       5.41889015       5.28258511       0.42817540      -0.21702896       0.05836399
Si       0.10542062       8.24682131       2.77917436       0.10678686      -1.25302109       0.23589414
Si      -0.09454926       8.01376114       8.07446745       1.46092802       0.62142256      -0.01348950
Si       1.38130685       1.36369800       1.39612445       0.24461544      -0.66724308      -0.20525902
Si       1.42229644       1.31130909       6.85813789      -0.35288209       0.02550382       0.34105672
Si       1.36964183       3.97674231       4.04253878      -0.61802167      -1.30942292       0.51779991
Si       1.31960558       4.21033584       9.54260418       0.10636014      -0.54687396      -0.51029729
Si       1.48663233       6.72922952       1.43393898      -0.63822684       0.70823328       0.23985746
Si       1.30323655       6.70683067       6.67986777      -0.52472591       0.69365958       0.08933331
Si       1.40721685       9.56412339       4.24890275      -0.21899206       0.24770561      -0.79762938
Si       1.28442117       9.45572651       9.42505974       0.52043127      -0.15832086       0.02025515
Si       2.79666869      -0.01756397       2.80586902      -0.33104090      -0.14691703      -0.59495475
Si       2.80686626      -0.07043952       8.15683028       0.20104390      -0.10472539       0.06736440
Si       2.64148382       2.80965777       0.05373292      -0.10534326      -0.79540484      -0.85501793
Si       2.79437852       2.59549033       5.52444894      -0.62491457       0.83418466      -0.76841276
Si       2.75325219       5.25094206       2.77239126      -0.36673173       1.01768136      -0.28640515
Si       2.64777056       5.52229910       8.06486468      -0.06745695      -0.51020457       0.95008525
Si       2.70733622       8.16912958       0.01671152      -0.05774484      -0.14182149      -0.27848390
Si       2.70249558       8.13019938       5.50742039       0.18733286       0.11399659      -0.10193530
Si       4.16577685       1.29954421       4.15570952      -0.19197275       0.31265075      -0.36027812
Si       4.11500917       1.42784444       9.55023926      -1.09701104      -0.10564760       0.10048807
Si       4.01687501       4.10390756       1.27997286       1.22724930      -0.50187100       0.70899507
Si       3.97486093       4.15423523       6.80358236      -0.19052898      -1.13085046       0.48558138
Si       3.93031262       6.74535805       4.10543921       0.46930050      -0.10868578       0.06664223
Si       4.04053462       6.76748253       9.46589412      -0.77572149       1.49653265      -0.62745974
Si       4.14560731       9.45990220       1.36270527      -0.53894289       0.79440847      -0.25296830
Si       4.22599134       9.41267033       6.75435809      -0.62192384       0.44642178       0.57918810
Si       5.46528534       0.07882867      -0.00193822       0.84873035      -0.40709300       0.55998995
Si       5.54004427      -0.02467739       5.46263220       0.06108627       0.18978159      -0.12361880
Si       5.39612807       2.73214188       2.74490156       0.11642204      -0.20995527      -0.49947180
Si       5.33817290       2.88511849       8.23049281      -0.00488323      -0.93519871      -1.05915751
Si       5.28409231       5.46851168      -0.10371386       1.64139491      -0.68836968       0.74364501
Si       5.28415327       5.42186645       5.51510293       1.20846148       0.35131969      -1.37639644
Si       5.32057723       8.02549548       2.72271380       0.83423737       0.37056074       0.24840873
Si       5.51623087       8.14071980       8.21495114       0.00943021      -0.25662063       0.00861677
Si       6.90606589       1.37131249       1.49234538      -0.65207015       0.02335339      -0.80690674
Si       6.71373320       1.53795056       6.78361291       0.32435438      -0.52406733       0.50372891
Si       6.74220363       4.09130849       4.04885403      -0.41225098       0.66231727       0.46566519
Si       6.76752391       4.10045452       9.45867064       0.77320827       0.18761412       1.25935674
Si       6.71564539       6.79494386       1.27046852       0.29493591      -0.24290149       0.22617444
Si       6.73965506       6.72159773       6.79062890      -0.09714901      -0.23155690       0.82650671
Si       6.76987943       9.47033646       4.02685285      -0.17503872      -0.38709312      -0.24770625
Si       6.90471728       9.59261889       9.44604802      -0.45569717      -0.04419650       0.65600654
Si       8.23294533      -0.13534564       2.67698617      -0.10412451       0.05230655       0.28911115
Si       8.19086336       0.05416965       8.02721319      -0.29497650       0.28261288       0.03545951
Si       8.22487485       2.73319124       0.03806753      -1.35824662      -0.10954162      -0.60547545
Si       8.11255603       2.88545611       5.47634657       0.23080590      -0.92684210      -0.49418101
Si       8.11244406       5.39928493       2.67128179      -0.26457604       0.43154138      -0.40801100
Si       8.20730601       5.40233061       8.13893504      -0.93551035       0.10417266      -0.26558092
Si       8.21057722       8.15933138      -0.01549325      -0.50080903      -0.22962121      -0.37327551
Si       7.97465425       8.08013753       5.45943497       1.47171884       0.47773591      -0.52186306
Si       9.40935090       1.30898526       4.12321909      -0.15217503       0.02251457       0.56179175
Si       9.46976860       1.37257130       9.48662893      -0.05977719       0.70266468      -0.85647210
Si       9.50659023       4.13313820       1.26405394       0.78075139      -0.16876983       1.01755862
Si       9.56961937       4.16332215       6.77683002       0.22262508      -0.70959889      -0.11380481
Si       9.43680806       6.78747177       4.03900917      -0.02836287       0.81728111      -0.33699710
Si       9.51896584       6.74861762       9.43204451      -0.91740566       0.44201641       0.97673377
Si       9.64178628       9.41562282       1.30491007       0.24954430       1.27058581      -0.48142683
Si       9.53795705       9.41700021       6.79175028      -1.24509326       0.30446364      -0.65384851
64
Lattice="10.862 0.0 0.0 0.0 10.862 0.0 0.0 0.0 10.862" Properties=species:S:1:pos:R:3:forces:R:3 pbc="T T T"
Si       0.08593907       0.06480278      -0.03380908      -0.49746003      -0.49396292       0.74514867
Si       0.18754818       0.05100348       5.50480731      -1.30735473      -0.58363680      -0.14291947
Si      -0.01894042       2.84516032       2.66489277       0.22544086      -1.61541755       0.96554256
Si       0.02496870       2.68710356       8.20487597      -0.67262276      -0.33625036      -0.13340921
Si      -0.14889110       5.40982127       0.01334199       0.75424386      -0.26595847       0.59296193
Si      -0.00295000       5.48877626       5.41315905       0.10038648      -0.34654888       0.44531789
Si       0.01707353       8.04495031       2.80106086      -0.39348666       0.25024971      -0.30810791
Si       0.01672009       8.11371403       7.99632961       0.62797658       0.20146444       0.90784256
Si       1.39492867       1.40695343       1.40338672      -0.22998312       0.51724570      -0.42573645
Si       1.50374243       1.33962002       6.92458222      -1.06056475       1.20071382      -0.91385458
Si       1.33901438       4.15097782       4.05938487      -0.33099628      -0.43624465       0.11507313
Si       1.24962184       4.14018208       9.51799194       0.71126829       0.17901191      -0.41990901
Si       1.29095196       6.76849823       1.32307111       0.05722153       0.30234728      -0.34079575
Si       1.46851198       6.74246366       6.76898280      -0.12111830       0.21139668      -0.30543563
Si       1.32760187       9.47871159       4.06970801       0.73898364      -0.22122516       0.58786159
Si       1.35288025       9.46714595       9.51724866      -1.25898736       0.50500986      -1.16334499
Si       2.67304903       0.01452152       2.76896537       0.50703849      -0.14343654      -0.00480540
Si       2.68833326      -0.00975014       8.23416577       0.69041034      -0.87041953       0.05791059
Si       2.64004843       2.77959082      -0.08729746      -0.15672072      -1.03294343       0.01957849
Si       2.65709222       2.68244553       5.34344520       0.48397275      -0.13384163       0.47809596
Si       2.63354315       5.48768583       2.71211755       0.99243964      -0.10567587      -0.47898891
Si       2.80770220       5.33284117       8.07720705      -0.83650910       0.87790876       1.24713898
Si       2.64633601       8.20453121      -0.07455080       1.13732739      -1.91781416       0.81039076
Si       2.81615427       8.16012510       5.44788128      -0.14716654       0.26987308      -0.15985829
Si       4.15694604       1.31101275       4.11094546      -0.88178162       0.60493365      -0.63659026
Si       4.01466828       1.25923451       9.57625430       0.24647359       0.38102724       0.86294335
Si       3.92426397       4.10004002       1.21822576       1.11776912       1.10850168       1.03571322
Si       4.03422371       3.97964681       6.76951690       0.50721010      -0.74888993      -0.25723538
Si       4.14071475       6.76824724       4.05610651      -0.21130709       0.71314372      -0.75273790
Si       4.17865787       6.79975355       9.43308683      -0.55581125       0.48205229       0.13564391
Si       3.96604738       9.41472798       1.43110153       0.17712077       0.54135042      -0.30274005
Si       4.10500418       9.58848146       6.87795938      -0.24479802      -0.96093569      -0.01444144
Si       5.38998183      -0.09716180       0.10961128       0.02084293      -0.05964730      -0.52987722
Si       5.42041571      -0.03452924       5.48434069      -0.10242779       0.17823215      -0.27626479
Si       5.30927771       2.85186024       2.69926707      -0.14363890      -1.55486141      -0.76561038
Si       5.33389678       2.60823927       8.27686625       0.63066875       0.54206681      -1.30711025
Si       5.50967458       5.54547421       0.04020112      -0.44184450      -0.35399783       0.05201584
Si       5.34224195       5.39031278       5.42112894       0.70835496      -0.12537308       0.64293052
Si       5.54823921       8.25854936       2.68988142      -0.91441124      -0.61200605       0.69529799
Si       5.58735948       8.29434973       8.19662520      -0.57627289      -1.08646496      -0.71493448
Si       6.72231641       1.29242223       1.40951935      -0.08151531       0.62904226       0.65294954
Si       6.73147043       1.34212371       6.71841700       0.18015032       1.36688976       0.55615554
Si       6.66042992       3.96532235       4.12570813       0.71561774       1.45226310      -0.55184970
Si       6.74488782       4.10809912       9.46227577      -0.38416879      -0.11921249       0.31369313
Si       6.90817619       6.99552600       1.33554297      -0.77834452      -1.44160892       0.19854722
Si       6.80874628       6.78423030       6.70541263      -0.89450247      -0.13688676       0.96204361
Si       6.79811533       9.59437036       4.12429914       0.64106926      -0.80204378       0.12308645
Si       6.92864366       9.64420187       9.46865860      -0.11200108      -0.76981197       1.43977316
Si       8.22963612      -0.03967898       2.75073664      -0.81496643      -0.55445373      -1.26038812
Si       8.12698860       0.12870373       8.06227420       0.86434367      -0.76650494      -0.10222164
Si       7.95953042       2.68044624      -0.01319720       0.85626606       0.03013076       0.34599265
Si       8.14243163       2.69380458       5.32921091       0.59984877      -0.53350986       0.71240272
Si       8.02194216       5.43518272       2.68936134       0.04534505      -0.45310004       0.55910933
Si       8.11464152       5.41008835       8.10539351       0.68039733       0.09602106      -0.17229264
Si       8.32279491       8.06479964      -0.02436141       0.24887013       1.80652164      -0.98219084
Si       8.17419190       8.12737257       5.49703094      -0.31489267       0.36295138      -1.35454675
Si       9.53579420       1.20567960       4.04040212       1.19406746       2.02802440       0.81159941
Si       9.41478190       1.31385046       9.58553035       0.54371433       0.84214045      -0.53984738
Si       9.41103935       4.01500622       1.38880111      -1.06622577       0.54084380      -0.89275230
Si       9.56622422       4.05335691       6.77454535      -0.52107205      -0.24142258      -0.17819575
Si       9.41382796       6.72422245       4.08820381       0.13770255       0.26974877      -0.21667080
Si       9.63084120       6.75463627       9.42036366      -1.16766884       0.02774217      -0.54232546
Si       9.65094142       9.46005264       1.38299276      -0.31655273       0.17422506      -0.20018104
Si       9.50501297       9.49206622       6.74681075       0.39463161       1.13103346       0.27540942
64
Lattice="10.862 0.0 0.0 0.0 10.862 0.0 0.0 0.0 10.862" Properties=species:S:1:pos:R:3:forces:R:3 pbc="T T T"
Si      -0.01772876       0.16455072       0.04363601      -0.36923284      -0.49385166      -0.78103903
Si       0.06630109      -0.01733214       5.36041385       0.00475557      -0.12726506       0.83116561
Si       0.06777919       2.83136711       2.90677735       0.34357063      -0.16260273      -1.52862465
Si       0.14040188       2.76496129       7.98329561      -0.72206912       0.32571487       0.74227017
Si      -0.07132965       5.40513900       0.09185850      -0.29063198       0.21443383      -0.50452566
Si       0.01905271       5.49427409       5.40267579      -0.92940104       0.42302688       0.58944296
Si      -0.00059945       8.32587493       2.72462439       0.58579695      -0.78846327      -0.17170594
Si      -0.13560145       8.21287300       8.15407343       0.80116361       0.17075658       0.50738923
Si       1.35100580       1.34043437       1.42860588       0.72302561       0.79477677       0.53236038
Si       1.50047015       1.28959695       6.81780141      -0.75069000      -0.12869955      -0.74600490
Si       1.42978017       4.13602793       4.23574238       0.51149383       0.24817981      -0.93270141
Si       1.31060544       4.03164852       9.64622121       0.02305831      -0.26433922      -0.62340708
Si       1.24855508       6.79925237       1.39644878      -0.01469141      -0.11741599       0.50627492
Si       1.25009551       6.73963336       6.96255503       0.22947214      -0.15669697      -0.08734690
Si       1.44352862       9.49081721       4.07249206       0.67709437      -0.20425961       0.61347863
Si       1.30325798       9.60357561       9.56088577      -0.29697512      -0.66693658       0.03945266
Si       2.83338269      -0.01062239       2.73711895      -0.56339800      -0.10182246      -0.37508840
Si       2.74517880      -0.02928864       8.22561369       0.68573348      -0.10348437      -0.19964420
Si       2.75006919       2.56516112      -0.11229394      -0.10282264       0.33778818       0.96675547
Si       2.77048368       2.68660317       5.45976549       0.14926393       0.34916622       0.30674189
Si       2.71562817       5.45024713       2.65568207       0.07836819      -0.43044056       0.44306652
Si       2.66639680       5.35151166       8.28081719      -0.08820826       0.25669301      -0.37597740
Si       2.58476767       8.09035477       0.04379873       0.23233980       0.66273623      -0.50060420
Si       2.64605152       7.95287020       5.54518829       0.73984729       0.94904373      -0.53378964
Si       4.11035374       1.43336884       4.04359666       0.21479375      -0.05852808      -0.28617152
Si       4.24049741       1.39993939       9.37673851      -1.39979923      -0.36825066      -0.00382386
Si       4.04398364       3.99531405       1.29332564       0.29722868       0.13904017       0.32792588
Si       4.07743209       4.10565872       6.83934738      -0.65999075       0.01473586      -0.48533251
Si       4.13099228       6.73796841       4.06254856      -0.42966003       0.01722461       0.11620703
Si       3.98809517       6.78365312       9.55029620      -0.13317083      -0.02424605       0.18760818
Si       4.05764578       9.44626821       1.28495929       0.06308954       0.46097446      -0.00975847
Si       4.09506787       9.46317579       6.83645850      -1.13373486      -0.89821197       0.29155063
Si       5.38545054       0.01125174      -0.12138870       1.17467942      -0.91955251       0.57186545
Si       5.24954201      -0.00157197       5.46365965       1.05655424       0.12279234      -0.44716786
Si       5.58756867       2.69970004       2.68872178      -0.96623913       0.53513571      -0.22087983
Si       5.46683636       2.77015956       8.04434747       0.48958578       0.62057096       0.79267889
Si       5.40350088       5.48174402      -0.00332768      -0.65539626      -0.35684479       0.54954421
Si       5.46521184       5.27287957       5.37761988       0.08231713       0.35272302      -0.28985520
Si       5.44090519       8.16895717       2.68807364      -0.30415042      -0.76415254      -0.29569251
Si       5.38459068       8.03006546       8.20900975       0.44814737       0.60413285      -0.67164656
Si       6.80918566       1.44571190       1.19875638      -0.45561446      -1.58538614       0.49146477
Si       6.69107029       1.34765896       6.76245603       0.74508784      -0.84150954      -0.14005974
Si       6.97810813       3.94848811       4.08002400      -0.44050087       0.33731412       0.34286337
Si       6.71103001       4.15771224       9.54127605       0.72822064      -0.51384467      -0.76021851
Si       6.80514063       6.67164832       1.41147911      -0.43537111       1.19612856      -0.16727161
Si       6.69545749       6.74082152       6.71843320       0.28473669       0.28328430      -0.07102312
Si       6.65804873       9.55175942       4.03419513       0.59112806       0.78110782       0.18873210
Si       6.87138557       9.38245939       9.45059815      -0.86932927       0.88772649       0.30411064
Si       8.09127824       0.03829200       2.64217726       0.34051357       0.18896268       0.20750987
Si       8.14536687      -0.01275894       8.10416244      -0.21143447      -0.00094875      -0.10501337
Si       8.14345982       2.73883481      -0.06532613       0.85903729       0.59815061      -0.66821833
Si       8.23673768       2.50725850       5.45881768      -0.07181388       0.75776992      -0.14467034
Si       8.18148205       5.47421034       2.76360856       0.79366398      -0.09031695       0.68629755
Si       8.07064980       5.48367192       8.12194427       0.61723138      -0.23637259       0.20448918
Si       8.10356674       8.18198149       0.11720217       0.64727387      -0.54288762       0.00783111
Si       8.04573270       8.19005197       5.33282890      -0.53151789       0.05522517       0.92545162
Si       9.62701049       1.34641899       4.00131466      -1.00149761      -0.83683321       0.26627576
Si       9.56050582       1.41495961       9.33468310      -0.15386014       0.29986951       0.54267045
Si       9.47359842       4.03173589       1.45159921       0.11261169      -0.02102438      -0.16294735
Si       9.46046355       4.08909939       6.71464746       0.21398606       0.06646798       0.30005484
Si       9.55345909       7.02558157       4.09782319      -0.11296044      -1.62658396      -0.50725534
Si       9.45721853       6.85401978       9.54890023      -0.31338436      -0.61611345       0.14723782
Si       9.57809758       9.57954710       1.35096267      -1.25181678       0.32818080      -0.34230075
Si       9.44273913       9.47877239       6.70565177       0.11449251       0.66805185      -0.39100155
64
Lattice="10.862 0.0 0.0 0.0 10.862 0.0 0.0 0.0 10.862" Properties=species:S:1:pos:R:3:forces:R:3 pbc="T T T"
Si       0.10051827       0.06002155       0.05337001       0.05570745       0.31691216       0.03306362
Si       0.08808552      -0.15689194       5.59128227      -0.31556531       0.97830883      -0.25260530
Si      -0.13376346       2.82127406       2.74391978      -0.44238467      -0.85177134       0.11222520
Si      -0.03688476       2.81913063       8.19701774       0.57809510      -0.10147935       0.66005132
Si       0.16828444       5.52628852       0.03725947      -2.18748432      -0.33872831       0.01735971
Si       0.06126470       5.29706631       5.42633816      -0.04332813       0.67375253       0.53929528
Si      -0.17622628       8.14165761       2.65763987       0.49341937       0.41756710       0.29020644
Si       0.00644998       8.14835577       8.10615669      -0.33647850       0.95925205       1.01813044
Si       1.34952336       1.52469133       1.51689904       0.23558688      -0.73113470      -1.06759383
Si       1.35893657       1.50430737       6.85582057      -0.18404488      -0.96084041      -0.47836079
Si       1.36568295       4.03832531       3.93915221       0.44527347       0.03017017       1.19282135
Si       1.39249398       4.17871179       9.59605399       0.31609224      -1.33671541      -0.88199845
Si       1.32700978       6.91524082       1.33127225       1.02847098       0.56497519       0.76847352
Si       1.36828105       6.87674264       6.80942855      -0.71274956      -1.97793991       0.05347726
Si       1.32834786       9.37734468       4.12617735      -0.46061513       0.62374883      -1.20695934
Si       1.40921391       9.56040740       9.52797084      -0.59833798      -0.65932612       0.00633726
Si       2.70264375      -0.00146365       2.73054170      -0.59759309      -0.18226902       0.66564204
Si       2.65558301      -0.00968728       8.12898794       0.93077054       0.41402302      -0.44963301
Si       2.77569121       2.62900741      -0.08232156      -0.47637736       0.29140029       0.16655040
Si       2.75313011       2.65086328       5.34793685      -0.93096972       0.96730260       0.50194674
Si       2.67375199       5.46219314       2.66805291       0.06863127      -0.15083970      -0.80382305
Si       2.71009943       5.50721888       8.20600106      -0.27759076       0.36332202       0.24200608
Si       2.82095925       8.21280881      -0.01375411      -1.05031557       0.05029976       0.24729487
Si       2.60557037       7.92673239       5.30617011       1.62925988       0.82021558      -0.32788883
Si       4.08114860       1.29866430       4.11802956       0.65347911      -0.29508934      -0.67748047
Si       4.17882234       1.32917253       9.41247458       0.07110328      -0.20670144      -0.05889691
Si       4.01565314       4.08541954       1.24180315       0.66882137       0.30949534       0.69999938
Si       3.90189490       4.13338390       6.80151381       0.90616188      -0.23239561      -0.79745884
Si       4.11247378       6.73709262       3.94960208       0.50282064      -0.28961169       0.69754551
Si       4.10669299       6.84605767       9.55881187       0.69908074      -0.40616276      -0.58744031
Si       4.07053093       9.52558330       1.40027071       0.37870188       0.64078079      -0.41979414
Si       3.90552607       9.38703069       6.66782311       0.31129645       0.75127354      -0.11956462
Si       5.51953791       0.00597886       0.05727031      -0.82101062       0.20515946      -0.12755251
Si       5.44248526       0.00955239       5.49357415       0.01678226      -0.47337286       0.21335941
Si       5.38840880       2.68571738       2.69192251      -1.02556500       0.18125817      -0.22024672
Si       5.44697433       2.87731165       8.04784391      -0.75905849      -0.23934653       1.14913142
Si       5.52395331       5.57584258       0.11450273      -0.30926822      -0.80049645      -0.44393226
Si       5.44338682       5.34318759       5.43224611       0.07958374       0.06551039      -0.20756053
Si       5.45694043       8.20407316       2.68087683       0.30173551      -0.17265560       0.45171726
Si       5.35881287       8.15776475       8.02369358      -0.13997152       0.01490464       0.89567473
Si       6.79933841       1.42103721       1.40536812       0.01706313       0.04349155      -0.65878357
Si       6.78766302       1.46374716       6.86657831      -1.13948345       0.04870604      -1.51568998
Si       6.83411382       3.84535523       4.02124305      -0.79343974       1.37019562       0.71011407
Si       6.77419112       4.04060077       9.61304455      -0.15943285       1.02646636      -0.74351358
Si       6.96768080       6.85584369       1.44288636      -1.09208444       0.52959096      -0.49794656
Si       6.79137599       6.70138337       6.92471584      -0.47439205       0.49966226      -1.72816961
Si       6.82933138       9.51827240       4.08967561       0.17705034      -0.04385259       0.08940473
Si       6.67897102       9.48037056       9.49222111       0.89174971      -0.09129328      -0.61565190
Si       8.15538695       0.04585559       2.60320648       0.00626813      -1.02481972       0.79076953
Si       8.02250320       0.10051848       8.06114499       1.29865986      -1.25472409       2.24793950
Si       8.16497363       2.74986345       0.02952618       0.48588705      -0.32075210       0.16658618
Si       8.15239678       2.59969608       5.40693471       1.12542291      -0.31339824       0.02297447
Si       8.04081559       5.42858060       2.82199072       0.56643493      -0.66923369      -0.02508749
Si       8.14891612       5.35707050       8.10946178       0.02694932      -0.06440010       1.72924957
Si       8.22088342       8.08286919      -0.11506715      -0.74723659       0.76315965       0.01797836
Si       8.18448900       8.02048883       5.45449192      -0.50189616       0.35734272       0.02506846
Si       9.56792944       1.13528819       4.08768886       0.32335676       0.97365077       0.33884493
Si       9.56322828       1.36746464       9.53590882      -0.63811221      -0.20790795      -0.27568789
Si       9.43855164       4.22895701       1.38084774       0.45501918      -0.12058231      -0.50750175
Si       9.45996607       4.02573788       6.83023818       0.18210266      -0.09419326      -1.45545435
Si       9.51619528       6.65282454       4.07112895       0.31360299       0.41916146       0.52699730
Si       9.55343316       6.75608622       9.46015483       0.56568428      -0.79967994      -0.37641826
Si       9.46036385       9.55695568       1.18561596       0.15645253      -0.15607885       0.63356358
Si       9.39541306       9.48895292       6.85736132       0.25220844      -0.10326719      -0.39310507
64
Lattice="10.862 0.0 0.0 0.0 10.862 0.0 0.0 0.0 10.862" Properties=species:S:1:pos:R:3:forces:R:3 pbc="T T T"
Si       0.03652132       0.07983601      -0.03643798       0.23296274      -1.78079328       0.50960636
Si       0.14549955       0.02105998       5.56705469      -0.25446038      -0.25328877      -1.23560541
Si       0.12304169       2.75465239       2.62122295      -1.27066239      -0.85760916      -0.10175481
Si      -0.01769854       2.75371284       8.04860809       0.88491993       0.58395268       0.20982402
Si      -0.02854435       5.51680968       0.06503927      -0.79952471      -0.68185312      -0.16113612
Si       0.04893831       5.46443987       5.38639856      -0.70235601      -0.29415003      -1.28547839
Si       0.00751268       8.21092643       2.66195108       0.08818447       0.04766335       0.19398905
Si      -0.22305671       8.26395469       8.05963180       0.90498167      -0.75621641      -0.22683382
Si       1.42627771       1.20050245       1.42460508       0.45663765       1.12990949      -0.03026245
Si       1.47835991       1.30082736       6.90567705      -1.15140992       1.17896695      -0.37565435
Si       1.37031785       4.06038623       3.97377590       0.42865251       0.32327590       1.03852010
Si       1.29485861       4.11735274       9.57138052      -0.22618659      -0.15632690      -0.46179038
Si       1.39708999       6.83074196       1.32893757      -0.61948626      -0.64623000       1.09989133
Si       1.27424303       6.76120384       6.75591397       0.05284956       1.27949703       1.01450517
Si       1.44897470       9.46929499       4.15735383      -1.37064507       0.33028193      -0.43939230
Si       1.33191583       9.41387590       9.43618363      -0.44896762       0.17131036       0.75060337
Si       2.79861898       0.02376366       2.96464160      -0.33979643      -0.52872395      -1.63255502
Si       2.68343038      -0.07714292       8.13831712       1.24764648      -0.33370282       1.30995333
Si       2.69441393       2.74167078       0.00828935      -0.16049678      -0.60716846       0.41636790
Si       2.65528551       2.61929463       5.43538889       0.32413370       0.56672289      -0.86242444
Si       2.77043119       5.46766785       2.71913973      -0.71269258      -0.61103432      -0.59702667
Si       2.61270071       5.47036814       8.17016645       0.42319786      -0.00262614       0.06131685
Si       2.72414083       8.11598981       0.08457067       0.08908041       0.70272728      -1.74560244
Si       2.70845760       8.15705386       5.47533859       0.10115683      -1.37498478       0.10601589
Si       4.19002856       1.33618841       4.15679375       0.15693742       0.56909650       0.65353005
Si       4.04468708       1.34387339       9.52712025      -0.01749043      -0.06615067      -0.18731250
Si       4.09086567       4.05959268       1.38685898      -0.46881292      -0.32837003       0.05427740
Si       3.90568355       4.10324747       6.70253634       0.57685172       0.12675137       0.90642043
Si       4.01691893       6.70504983       4.11959306       0.65129189       0.69161456       1.06510700
Si       4.07979687       6.87644488       9.44748617       0.48356981      -0.73287430       0.23601562
Si       3.97619054       9.50720651       1.39835509       0.46427059       0.23838056       0.67331075
Si       4.04550259       9.46560768       6.79290896       0.69055613       0.44094021      -0.29724328
Si       5.38000954      -0.08430999      -0.00307219       0.48744426       0.24994300       0.07693014
Si       5.52709906      -0.03784416       5.51202793       0.18757249       0.39506724       0.19878671
Si       5.42283178       2.67368479       2.71066639       0.85348992       0.13654247       0.04183092
Si       5.31173880       2.77682217       8.12884977       0.01337304      -0.58709318      -0.76995795
Si       5.40089379       5.35668087       0.04704899       0.07208780       1.34780462      -0.63367474
Si       5.44564556       5.42783690       5.50771461       0.24555492      -0.75861873      -0.69724845
Si       5.28573239       8.11385109       2.81697814       0.82741090       0.92266173      -0.64785411
Si       5.53081774       8.11671399       7.94406305      -0.17337997      -0.04355946       1.22274648
Si       6.84251059       1.25887070       1.37839781      -0.67580280       0.11490227      -0.22609968
Si       6.92261056       1.41512657       6.88609538      -1.60363396      -0.58308173       0.66993173
Si       6.88457055       3.97020523       4.12259858      -1.33269259       0.60301538      -0.17462138
Si       6.66193321       4.04649014       9.46926265       1.01845164      -0.06272831       0.44066278
Si       6.68463608       6.85813376       1.39445368      -0.27924800      -0.40514117      -0.16981532
Si       6.96396428       6.71753132       6.74492084      -0.76395173       0.39851158      -0.19021303
Si       6.83824162       9.63422391       3.96215702      -1.09485384      -1.23882299       0.56451273
Si       6.80859161       9.52116780       9.40320419      -0.88481263       0.20137183      -0.02256720
Si       8.29687788       0.01810892       2.72955812      -0.35676949       0.70003652       0.17810798
Si       8.27302775       0.07716658       8.26958810      -0.28789397      -0.37742862      -0.92369773
Si       8.10865700       2.57785032      -0.08203982      -0.08784140       0.98635512       0.08789707
Si       8.17420655       2.54941228       5.41099393       1.00385340       1.05865049      -0.31360622
Si       8.03192308       5.50371424       2.75618071       0.53998408      -0.84313233      -0.48296390
Si       8.16330831       5.40528162       8.21026993       0.38060008      -0.56148831      -0.17928195
Si       8.00271710       8.20047893      -0.02797649       0.35715130      -0.51880389       0.45818885
Si       8.10614256       8.18779778       5.31392261       0.03603616       0.11298629      -0.02773723
Si       9.67801841       1.32569636       4.09904977       0.41987035       0.37473513      -0.22208012
Si       9.68166058       1.42068976       9.48848893      -0.81918443       0.33267544       0.06976888
Si       9.38436967       3.99610178       1.38440741       0.25695854       0.86794203      -0.35057867
Si       9.52309490       4.10365980       6.64194508      -0.57045749      -0.30886337       0.71656065
Si       9.46133595       6.84062831       3.99752776       0.94997045      -0.19816652       0.27529203
Si       9.43670074       6.87833187       9.53207996       0.25142897      -0.32995069       0.12372401
Si       9.39058993       9.51507638       1.32337904       1.42723803      -0.08396419      -0.89652329
Si       9.40013751       9.63536598       6.60845731      -0.11284733      -0.27134559       1.14439776
64
Lattice="10.862 0.0 0.0 0.0 10.862 0.0 0.0 0.0 10.862" Properties=species:S:1:pos:R:3:forces:R:3 pbc="T T T"
Si      -0.06327060       0.08495194       0.01508277      -0.30683070      -0.48906747      -0.37250768
Si       0.04137160      -0.07501992       5.37822500      -0.32308658       0.49699302       0.37176306
Si       0.01966893       2.81198541       2.70705544       0.46405125      -1.09216918       0.46121073
Si      -0.06997072       2.76030533       8.20770358       0.74240907       0.77287469      -1.10534688
Si       0.08967601       5.46926856       0.12309816      -0.45402499      -0.17661892       0.18372464
Si      -0.03224113       5.52153587       5.38517050       0.23177031      -0.76641453       0.16667358
Si      -0.09170752       8.13541792       2.77267733      -0.39129007      -0.05125390      -1.26207706
Si      -0.06467932       8.03621846       8.16769905       1.10708331       1.35253310      -0.63004073
Si       1.32783593       1.43950338       1.31923130       0.68998910      -0.35463542       0.14796312
Si       1.32472103       1.41021422       6.77004380      -0.78123233      -0.60188679       0.53510700
Si       1.41056866       4.12580979       4.01704969      -0.81966512      -0.27209552       1.45246416
Si       1.35872236       4.05862000       9.64785943      -0.64573851       0.87890122      -1.82471323
Si       1.40769639       6.84454428       1.47477579      -0.28700510       0.45324215      -0.45111881
Si       1.36570152       6.81884510       6.79252160      -0.23083876       0.04117704      -0.64893463
Si       1.32615362       9.35674677       4.03164561       0.72486375       1.23752869       0.00821904
Si       1.24723721       9.47426677       9.51280283       0.24138575       0.71861585      -0.43283348
Si       2.73724072      -0.08882716       2.61960214      -0.57453203       0.32635129       0.27947890
Si       2.68071750      -0.06371780       8.00696206      -0.42964070       0.33235234       1.29700232
Si       2.74998860       2.77752454      -0.06687625       1.09976706      -1.40609624       0.96599311
Si       2.65559349       2.69217202       5.46013427       0.81259851       0.48443589      -1.00446227
Si       2.71573104       5.46069758       2.77379210       1.12984554       0.15153697      -0.66797961
Si       2.64913827       5.42022108       8.07487295      -0.09004062      -1.02633939       0.63738885
Si       2.66561314       8.16903247      -0.05851134       0.84783494      -0.82597439       0.21432512
Si       2.74737107       8.07499228       5.33593109      -0.10945683       0.34667853       0.61312982
Si       4.04539713       1.33337970       4.04104078      -0.28319321      -0.33066977       0.31225271
Si       4.13016253       1.24196814       9.46042074      -1.71877607       1.73257034      -1.52411105
Si       4.09578506       4.11726437       1.39201592      -0.14956419      -0.07950583      -0.48238744
Si       4.06837718       4.02251741       6.81083659      -0.46665669       0.17908546       0.01870285
Si       4.16187623       6.75306192       4.09170151       0.13048624      -0.10517226       0.14200422
Si       4.05338209       6.66842405       9.39523568       0.06930399       1.21607562       0.61792583
Si       4.15567062       9.41585820       1.32163937       0.11585978       0.16681791       0.23134850
Si       4.03811078       9.55933142       6.65371699       0.32590792      -1.18538383       0.55322705
Si       5.37908581       0.08857670      -0.04894386       1.27720934      -1.09310964       1.75106647
Si       5.44069934       0.10982385       5.53953377       0.18267686      -0.32865882      -1.46956936
Si       5.41016550       2.70123037       2.73331946      -0.11047048      -0.26915431      -0.84911782
Si       5.48270278       2.73271953       8.12754493       0.37302291      -0.19636550       1.11260499
Si       5.46945584       5.39973711      -0.07115317       0.00560590      -0.26415706       0.43644092
Si       5.43660579       5.47231403       5.61623393      -0.79065036      -0.49004568      -0.85627178
Si       5.58639913       8.18183052       2.89274436      -0.93112599      -1.05143806      -2.24793138
Si       5.42995932       8.18470416       8.13710187      -0.90495088       0.50791780       0.15847265
Si       6.88105353       1.41565479       1.26936820      -1.26346024      -0.47405334       0.98167495
Si       6.85222211       1.44133502       6.76491104      -0.19840260      -0.51824564       0.49663608
Si       6.55732922       4.07961187       4.14143644       1.51921824       0.13954956       0.16499567
Si       6.99057422       3.96162266       9.64295100      -1.44943006       0.85352092      -1.02905744
Si       6.84942763       6.74827112       1.28440466      -0.23038800       0.38486930       0.85518021
Si       6.74697516       6.76319138       6.91553541       1.20111228       0.92937041      -0.19953442
Si       6.84081220       9.52448939       4.13900106       0.05286423       1.18780834       1.16651781
Si       6.75635658       9.62104158       9.50923575       0.04646240      -0.96501361      -0.25649749
Si       8.09712724      -0.00800195       2.69380368       0.05697223       0.18885232      -0.06440197
Si       8.12243826      -0.06252350       8.05793156      -0.16569547       0.91246128       0.40424136
Si       8.33435447       2.67276053       0.07811809      -0.00573205       0.05727580      -0.33824923
Si       8.10320007       2.70611753       5.35465047       0.34206701       0.39467823      -0.55312517
Si       8.09478224       5.38281270       2.84166463      -0.75598116      -0.43330835      -1.15101024
Si       8.16356803       5.49959264       8.26444392       0.07235079      -1.17127749      -0.51247754
Si       8.15883957       8.14535364      -0.10725094      -0.21569760      -0.05662306       0.16380776
Si       8.17540302       8.13639293       5.46682874      -0.67864631      -0.34045960       0.38790866
Si       9.52009743       1.34113817       3.99471904       0.14174534       0.03536206       0.37501554
Si       9.44650370       1.39844764       9.37392979       0.10852218      -1.32742549       0.81595779
Si       9.52906476       4.07450976       1.44155013      -0.20568122       1.14409469      -0.14562437
Si       9.40806199       4.10115156       6.71690165       0.60729208       0.39005836       0.59899507
Si       9.40751858       6.79218129       4.04556906       0.48528542       0.05663631       0.55882221
Si       9.62809482       6.75528637       9.52247947      -0.92327006      -0.49674216       1.04090468
Si       9.37883770       9.48407189       1.33589990       1.10798107       0.21738829      -0.02105487
Si       9.51064458       9.46344112       6.82637979       0.57761015      -0.04825251      -0.57871150
64
Lattice="10.862 0.0 0.0 0.0 10.862 0.0 0.0 0.0 10.862" Properties=species:S:1:pos:R:3:forces:R:3 pbc="T T T"
Si      -0.10448572      -0.01527565       0.06291748       0.58410097      -0.42731806      -0.10430160
Si      -0.09875796       0.11920394       5.45801132       0.36247173      -0.75461656      -0.74885684
Si       0.02281944       2.76483334       2.69639353      -0.37970181      -0.58377099      -0.49080166
Si       0.01957723       2.69941989       8.16713627      -0.74417271      -0.43120812       1.18927402
Si      -0.10289846       5.47058166      -0.13706140       1.07475175      -0.28838329       0.91000141
Si      -0.00692973       5.45384453       5.59392260      -0.26297381      -1.42351577      -0.84149070
Si      -0.13850885       8.04251668       2.66847864       1.05177640       0.89688054      -0.09932122
Si       0.15344652       8.19616280       8.05497938      -0.36141436       0.76907216       0.44349353
Si       1.36533549       1.29833716       1.37567164      -0.16545125       0.40546247      -0.02276860
Si       1.25740334       1.38205913       6.81435138       1.48788809      -0.10430277      -0.40927486
Si       1.29041527       4.06533875       4.08947770       1.02601945       0.74632665       0.48986491
Si       1.31975529       4.06329411       9.52784606       0.42165320       0.54650887      -0.35498539
Si       1.28290270       6.76986218       1.30023992       0.54954010       0.30653179      -0.50137248
Si       1.40412053       6.75718611       6.76807722       0.79373942       1.02295123      -0.27736271
Si       1.22717521       9.48591840       4.05911472      -0.36577937       0.12864543       0.04017173
Si       1.44019846       9.61239641       9.50639523      -0.28247320      -0.49976489       0.48071416
Si       2.68479825      -0.08465041       2.75247520      -0.39600633       0.20454928      -0.27790126
Si       2.77786840       0.14392541       8.17818041      -0.51431414      -0.48502285      -0.62428511
Si       2.68333036       2.78323839       0.06303988      -0.02973164      -0.78941864      -0.13821634
Si       2.73422086       2.65945664       5.40815135      -0.47153523      -0.47942964      -0.37784235
Si       2.72866260       5.48324503       2.65666989      -1.25216349      -1.11504809      -0.01391192
Si       2.72002415       5.45083414       8.13364068       0.43819900      -0.71069551       0.40668255
Si       2.80489211       8.17200624       0.02609346      -0.40345876       0.22691784       0.22417148
Si       2.71047112       8.22688816       5.34124721      -0.14172268      -0.90230359       0.46484752
Si       4.11191904       1.17202261       4.04894897      -0.58317203       1.30456198       0.43302863
Si       4.08910177       1.49522108       9.50783057       0.31863348       0.08338377       0.45491303
Si       4.08463879       3.96286014       1.47466160      -0.15761462       1.32722858      -0.89323888
Si       4.06591052       4.02935957       6.71414252       0.36937308       0.61285122       0.56086460
Si       4.03416344       6.73147837       4.00264786      -0.64752614       1.40927857       0.38920061
Si       4.14662518       6.76754608       9.52624684      -0.77288705       0.01086252       0.05119404
Si       4.16655447       9.59016938       1.45334581       0.24517506      -0.74251159      -1.20105649
Si       4.05325271       9.46908168       6.83899665      -0.81403341       0.57041368      -0.30681974
Si       5.52719082       0.06737251      -0.11669125      -0.59720460       0.22131163       1.26897832
Si       5.39450011      -0.13285931       5.42627439       0.41055774       0.12687384       0.36102406
Si       5.42289269       2.70495942       2.79703441       0.39353264      -1.21290023      -0.01026170
Si       5.52646230       2.77779305       8.16883964      -0.57991175       0.16178742      -0.50836818
Si       5.43883812       5.40323629       0.03670707       0.08281073      -1.07260344      -0.21562380
Si       5.34415996       5.48627118       5.30769330       1.43140700      -1.27072574       0.99090501
Si       5.42760771       8.06531623       2.77966761       0.11504359       0.57413944      -0.67526802
Si       5.36733305       8.15240197       8.13682542       1.47533752      -0.27836475       0.28907067
Si       6.83330460       1.38163574       1.42745719      -0.29309382       0.12005506      -0.75129983
Si       6.68752713       1.35595582       6.72161731       0.43817676       0.07576261      -0.11810134
Si       6.85612034       4.01084826       4.03531641      -0.93388950       1.06363183       0.56149525
Si       6.94890802       4.11922079       9.45000124      -1.81990636      -0.02651201       1.09995688
Si       6.73724010       6.70318623       1.41429116       1.13896598       0.35685847       0.00882167
Si       6.78853690       6.77368073       6.74586294      -0.18316901      -0.09627290       0.29226662
Si       6.77942214       9.39450828       4.11845973       0.08902038       0.05342386       0.19537375
Si       6.84893232       9.59115482       9.41518572      -0.07637773      -0.74588973      -0.32854005
Si       8.08810514      -0.05346579       2.82096782      -0.16288775       0.49285574      -0.30716246
Si       8.19581630       0.10691856       8.00155053      -1.01856401      -0.02301242       1.14263704
Si       8.15895979       2.80174514      -0.01485813      -0.21429097      -0.91538279       0.89358306
Si       8.11884218       2.75902271       5.45211454       0.03929286      -0.77395217       0.19243774
Si       8.25344259       5.33334130       2.76417393      -0.97851229       0.53945822      -0.71897362
Si       8.22700696       5.40368329       8.18311472      -0.27163788       1.44796706      -1.12808478
Si       8.09835964       8.14530845       0.00274167      -0.01176615      -0.48167165      -0.60154895
Si       8.21269943       8.15777486       5.46595215       0.25043830      -0.72398308      -0.34902401
Si       9.44137925       1.41850716       4.02694911       0.20352297       0.18707284       0.25243735
Si       9.39422501       1.31636088       9.59274468       0.95641340       0.59824209      -0.84702894
Si       9.52829041       4.11768025       1.29268586       0.40153297      -0.31074070       0.08788773
Si       9.46469538       3.98826938       6.90531837       0.49554829       0.48825180      -0.90526943
Si       9.61194555       6.65413949       4.05458301      -1.00027593       0.68859125       1.31747414
Si       9.62131347       6.83760226       9.35194888      -1.12140541       1.11447907       0.53001762
Si       9.36192869       9.49269684       1.42134657       0.57285714      -0.23558651      -0.34362008
Si       9.50201068       9.58337141       6.81785364       0.79124517      -0.97828036      -0.53080577
64
Lattice="10.862 0.0 0.0 0.0 10.862 0.0 0.0 0.0 10.862" Properties=species:S:1:pos:R:3:forces:R:3 pbc="T T T"
Si      -0.05972003       0.00871264      -0.10412932       0.28446418       0.10476066       1.47773040
Si       0.02512846       0.03018072       5.38383142       0.03801093      -0.39682618       0.83743278
Si      -0.09011941       2.61662202       2.93006532       0.39576500       0.71391280      -1.12500563
Si       0.05268287       2.68708022       8.18282929      -1.14225304       1.03115864       0.61480100
Si       0.01385370       5.28647361       0.08810949       0.20885284       1.08144267      -0.40322476
Si       0.05719691       5.34722294       5.49082682      -1.29872641      -0.64754835      -0.49967135
Si       0.02525504       7.99891888       2.71502750      -0.10758072       1.18421219       0.67979130
Si       0.07154603       8.09987891       8.06095797      -0.30494839       0.45333493       0.32026860
Si       1.35869241       1.37678032       1.50277647      -0.99438141       0.35517163      -1.64462496
Si       1.33253095       1.41971274       6.85528530       0.47834244      -0.56746502      -1.42101121
Si       1.38597589       4.05824925       4.11390690      -0.12307360      -0.52208413      -0.13365442
Si       1.47624908       4.09697317       9.49534728      -1.60708731       0.14738087      -0.30393812
Si       1.40325633       6.84420777       1.32983659      -0.29730489      -1.54597315       0.09507942
Si       1.36054585       6.63383205       6.76564977       0.53632521       0.53816657       1.29996969
Si       1.36411579       9.47211487       4.10820845      -0.16926240      -0.78437677      -0.05025613
Si       1.34514616       9.68076293       9.30872648       0.15937367      -1.05543097       0.74073002
Si       2.64265706       0.02419880       2.78326511       1.32209996      -0.14924600       0.45277974
Si       2.81560355       0.13396031       8.07450893      -0.54892260      -0.86802350      -0.49067355
Si       2.67381793       2.78320230      -0.02037581       0.46907433      -1.00126304       1.28829953
Si       2.76821610       2.73364596       5.48218022      -0.94170203       0.04454781       0.04193260
Si       2.71273875       5.39948162       2.74007854      -0.18760690       0.86402446      -0.20682889
Si       2.81414250       5.45143317       8.22756487       0.52201261      -0.02933894      -1.06232524
Si       2.60399712       8.27037620       0.01738389       0.35205672       0.75977563      -0.54560757
Si       2.67980647       7.96859554       5.45522780       0.69307852       1.35185861      -0.50165226
Si       4.09300752       1.49216419       4.10092433      -0.36932878      -1.08830420      -0.43881956
Si       4.01585311       1.37408612       9.51534013       0.68705964       0.85186463       0.33238888
Si       4.02444367       4.25323815       1.24922046       0.18736658      -1.73208584       0.66772317
Si       4.20628139       3.98564360       6.72729877      -1.09934255       0.58537952       1.55420630
Si       4.13562549       6.66138318       4.12725693       0.35019920       0.35622889      -0.08827566
Si       4.03480787       6.98219343       9.54578390      -0.14810857      -0.05001237      -0.57645750
Si       4.03619320       9.50184701       1.46818600      -0.13598951      -0.02656748      -0.30226175
Si       4.08971016       9.58768495       6.66692494      -1.25133461      -0.52838172      -0.08326194
Si       5.29387420      -0.00689772       0.00115128       0.93186447      -0.34550583       0.21990203
Si       5.43131423       0.07177199       5.41465747       0.00528426      -0.48862133      -1.28802262
Si       5.41436526       2.79817045       2.72112425      -1.33266931      -0.36084801      -1.64429296
Si       5.46267152       2.68412847       8.14398598       0.40587247      -0.02435786       0.61521436
Si       5.33106610       5.47160583      -0.13461961       1.36329340       0.74826721       0.19792904
Si       5.53347527       5.30363435       5.51361832       0.85012076       1.38619742      -0.86499048
Si       5.50985434       8.12573763       2.72265178      -0.65196773      -0.72526585      -0.23754643
Si       5.32654984       8.29012864       8.05086313       1.31774962      -0.57891793       1.12463984
Si       6.67726676       1.35950279       1.38174697       0.08541995      -0.30442730      -0.30831669
Si       6.75384441       1.32999693       6.72567372      -0.10326112      -0.03230174       1.35078821
Si       6.76260753       4.06323024       3.88883952       1.22019896       0.77173645       2.04412495
Si       6.85601684       4.16811883       9.47361577      -1.04446422      -0.74111713       0.05662794
Si       6.85848566       6.76630294       1.24555099      -1.07628051      -0.00643975       0.24968053
Si       6.85533669       6.83748399       6.92158248      -0.45965008      -0.44926010      -0.77129034
Si       6.78558081       9.51474681       4.03924153       0.04613791      -0.30531824       0.89105431
Si       6.83029898       9.52441324       9.51728702      -0.74239923       0.47190297      -0.59014786
Si       8.09383983      -0.09610414       2.63899293      -0.08621984       0.66675681      -0.12514126
Si       8.17498439       0.05038598       8.06428555      -0.25179283      -0.35507139       0.67315125
Si       8.03047387       2.76030845       0.05897209       0.21746353      -0.25409259      -0.08593569
Si       8.02335575       2.62429006       5.41620791       0.70277199       0.87852441      -1.29700896
Si       8.16660720       5.49117147       2.68239457       0.06381024      -0.26174684       0.15376637
Si       8.27000874       5.40490611       8.17131804      -0.05780843       1.09845351       0.11153180
Si       8.17815935       8.11549429      -0.06252081      -0.00985780       0.92418119       0.72142838
Si       8.19565151       8.12484877       5.42770825      -0.49670301       0.22797396      -0.04238504
Si       9.39172782       1.19897800       4.07263642      -0.25175408       0.44663860       0.51324196
Si       9.40879516       1.41458718       9.53955723       0.22445476       0.18331055      -0.26644915
Si       9.44726142       4.00258627       1.44531258       0.63109566      -0.25266114       0.15688672
Si       9.41107846       3.97606332       6.76738812       1.07583908      -0.22413965      -0.07245570
Si       9.55883516       6.71048712       4.13101932      -0.11829924       0.06213156       0.00567642
Si       9.57845721       6.85001438       9.56330602       0.88288547      -1.31665754      -0.55085324
Si       9.53306047       9.42892834       1.44412257       0.22046194      -0.10929594      -1.43432467
Si       9.52185721       9.51612204       6.76030392       0.48127485      -0.16032133      -0.03206593
64
Lattice="10.862 0.0 0.0 0.0 10.862 0.0 0.0 0.0 10.862" Properties=species:S:1:pos:R:3:forces:R:3 pbc="T T T"
Si       0.02433046       0.04061017      -0.09650811       0.78360933      -0.60372163       0.57991527
Si       0.04170313       0.02753018       5.50970172      -0.61543095       0.11970807      -0.49694081
Si      -0.11299182       2.73940696       2.62339263       1.56239528       0.02495940       0.19742687
Si       0.02953042       2.60625782       8.16013748      -0.18220985       2.24213078       1.20896233
Si       0.05344812       5.52477068       0.04174203       0.24920920       0.53769771      -0.77437753
Si      -0.02493425       5.38172603       5.29635636      -0.30249115       0.23954067       1.78063900
Si      -0.09772141       8.15682758       2.84175628      -0.65115125       0.67836117      -0.77770844
Si       0.02808719       8.24388686       8.12403230      -0.15502207      -0.52085587      -0.05098210
Si       1.41073800       1.35268625       1.33254677      -1.50758791       0.64560511      -0.15685904
Si       1.30267488       1.41497602       6.85511681       1.93198763      -0.44151588      -1.62970720
Si       1.32625226       4.17609575       3.96285601       0.94979866      -1.48265809      -0.40785694
Si       1.44878668       4.09419695       9.54723247      -0.82320771       0.31679871      -0.55350157
Si       1.31006050       6.97309804       1.51032375       1.06796508      -1.19213608      -1.11674837
Si       1.33348363       6.79463752       6.74467658      -1.06935905      -0.63832535       0.34523131
Si       1.25617216       9.46656105       4.13084586       1.20679160       0.42859344       0.11506331
Si       1.46739801       9.58902879       9.41268054      -0.52935560       0.01974268       0.03088901
Si       2.62622770      -0.00140661       2.65147003       0.52688104      -0.54419943       1.50055351
Si       2.79298504       0.14890639       8.09951499       0.27282783      -0.96782518      -0.07698444
Si       2.73129107       2.74392041       0.04277435      -0.40648252      -0.58063541      -0.65477434
Si       2.79664705       2.73293089       5.35176444      -1.75972807       0.17808913       0.34631895
Si       2.83123439       5.45735990       2.67072531      -0.84595657      -0.18596830      -0.61802829
Si       2.73825859       5.47390447       8.07326949      -0.69471966      -0.27827484       0.51747463
Si       2.68975839       8.16114461      -0.08657207      -0.07365903      -0.12401678       0.59537781
Si       2.69673839       8.07490836       5.49873892      -0.21427113       0.44016348      -1.53876020
Si       4.09243405       1.28983243       4.13092016      -0.55064371      -0.21351212      -1.13311907
Si       4.09824336       1.43416980       9.56297496       0.51428974       0.45187889      -0.88840634
Si       4.12078969       3.97988721       1.26578784       0.74954264       0.94091235       1.39884297
Si       4.01246627       4.09110095       6.76316206       0.85100819       0.31886090      -0.27421038
Si       4.06232694       6.81223526       4.04510994       0.52856334       0.01019629       0.73293676
Si       4.07939444       6.78180508       9.43870727      -0.22532769      -0.61980133       0.99962659
Si       3.99270383       9.62282316       1.23164861       0.21687014      -0.88791873       0.58400403
Si       4.05097735       9.43126440       6.70654116       0.43105777       1.64154033       0.37188496
Si       5.43040790       0.10349479       0.05172845       0.93472403      -0.36548833      -0.29690489
Si       5.51018624      -0.03717761       5.32902046      -0.15854977      -0.96817711       0.71733118
Si       5.44563741       2.64245815       2.79010356      -0.21981219       0.59037555      -0.09130263
Si       5.47195276       2.80997713       8.05279134      -0.58147422      -0.84512257       0.64158635
Si       5.48153023       5.34375858      -0.07671757      -0.48991401       0.14359358      -0.32206244
Si       5.46140504       5.50712489       5.51129105      -0.37622113      -0.56415562      -0.94692417
Si       5.33764674       8.18612151       2.65411058       0.21141651      -0.29973753      -0.72393573
Si       5.32320517       8.18005587       8.17583065       0.86438747      -0.22066373      -0.76374043
Si       6.86477488       1.22325750       1.62808626      -0.45680747       0.07337951      -0.80855642
Si       6.75983544       1.34164417       6.75260624       0.14637554      -0.00486969      -0.03912794
Si       6.80338254       4.04859759       4.12870052      -0.28868369       0.28431751       0.03188130
Si       6.85143004       3.89328699       9.56658475       0.20004775       0.76585608      -0.28977060
Si       6.75555270       6.71354466       1.29159586      -0.74662454       0.63118561       0.66684465
Si       6.80427193       6.77717917       6.87261168      -0.62600224       0.05787722       0.77942144
Si       6.82097605       9.30829584       4.05914224       0.09711788       0.80891668       0.11087036
Si       6.71736558       9.46815927       9.46750547      -0.27692542       0.94065425       0.78286813
Si       8.29153853      -0.10891848       2.86899505      -0.51560992      -0.47959171      -0.33230237
Si       8.06829645       0.00530119       8.17443140       0.67029205       0.28402180       0.13606176
Si       8.11072339       2.62144780       0.22871235       0.86021120       0.12346722      -0.96070578
Si       8.19721566       2.65529847       5.41942578      -0.46071734       0.18945244       0.24076319
Si       8.07032282       5.40810933       2.66841043       0.59315588      -0.14749138       0.35932154
Si       8.14304087       5.37926160       8.17694965       0.17784246      -0.77081647       0.05657682
Si       8.01239914       8.17670014       0.03181308       1.19889977      -0.31138468      -0.65710826
Si       8.12079553       8.10673355       5.58353443       0.47271869      -0.21909766      -1.06007029
Si       9.55549843       1.38768185       4.05882114       0.41279846      -0.40699347       0.62432290
Si       9.56285204       1.40154677       9.53017693      -1.88728843      -0.38469043       0.29974251
Si       9.56461309       4.16744481       1.28888690      -1.18827735      -0.25104254       0.28373562
Si       9.52582662       3.94135512       6.83924319       0.12342554       1.11226051      -0.60688089
Si       9.42787983       6.75243722       4.08010099      -0.75930082       0.00809366       0.24614670
Si       9.46541400       6.81114494       9.41851842       0.47296378       0.51971397       1.08141351
Si       9.51089440       9.55941646       1.27674514       0.16775181      -0.59662166       0.39218662
Si       9.45963401       9.54417743       6.79281652       0.19188619       0.34936489       0.29213598
64
Lattice="10.862 0.0 0.0 0.0 10.862 0.0 0.0 0.0 10.862" Properties=species:S:1:pos:R:3:forces:R:3 pbc="T T T"
Si      -0.07088789       0.05010747      -0.04786112       0.67338584      -0.42371639       0.57510122
Si      -0.00836243      -0.07301772       5.45948233       1.16504434       1.40687057      -0.69210903
Si       0.01905795       2.75808395       2.74585149      -0.20648239       0.30131923      -0.42443586
Si      -0.02555058       2.75000479       8.20358351      -0.16629306       0.02285565      -0.02623812
Si      -0.05327735       5.47006746      -0.10767121       0.34412158      -0.35666183       0.75454801
Si      -0.04273804       5.42471819       5.50354189       0.18400442       0.87330052       0.14150480
Si       0.04170594       8.04811257       2.68284924      -0.19578274       0.26254244       0.19151052
Si       0.05649988       8.31409619       8.17540652       0.00401375      -1.28382281       0.02897874
Si       1.31636210       1.33141724       1.42170699      -0.63819604       0.57720899      -0.85556144
Si       1.34778718       1.51772239       6.82950030       0.38039397      -1.24335298      -0.87083571
Si       1.28735186       4.17950958       4.12369334       1.41840439      -0.64579458      -0.37617397
Si       1.38594329       4.03368723       9.59770555      -0.66596305       0.49322298      -0.97708081
Si       1.30551994       6.61674026       1.40941532       1.17923072       0.81281298      -0.84077395
Si       1.33749865       6.80456028       6.87891883       0.24163897      -0.17016247      -0.33515566
Si       1.39218928       9.46291163       3.96974754      -0.54166805      -0.49668909       1.47973450
Si       1.43158160       9.54145095       9.51801390      -0.25305491       0.04354690       1.11854726
Si       2.61399593      -0.00491082       2.68512237       1.62763267      -0.09775508       0.08913482
Si       2.65586697       0.06697272       8.20042199       0.59130373       0.75722713      -0.45808754
Si       2.65174981       2.76243696       0.11267389       0.18296495       0.27620377       1.17066471
Si       2.80846220       2.71989588       5.32719946      -1.53782359       0.88576911       0.94892528
Si       2.84863204       5.48749448       2.81474285      -0.96107356      -0.08267272       0.22256778
Si       2.73000438       5.29925514       8.10296729      -0.29067955      -0.52194761      -0.69217619
Si       2.77663897       8.06405255      -0.01470562      -1.02962157      -0.83494709      -0.20010191
Si       2.76212210       8.12670946       5.46149823      -0.71177413       0.10968671      -0.04431229
Si       4.05602057       1.44919457       3.99752374       0.42576129      -1.65416908      -0.78117430
Si       3.94230446       1.47044876       9.65197950       0.92003475      -0.83336967      -0.96957060
Si       4.10993923       4.22268546       1.35384404      -0.11839847      -0.86416319      -0.36310330
Si       4.23793466       3.99702266       6.66815538      -1.04390409       0.64380439       0.41518767
Si       4.22143645       6.81642787       4.19060828      -0.88181586      -0.16292084       0.08069770
Si       4.04629768       6.62072375       9.38533467      -0.11756058       1.66172489       0.36205755
Si       4.01329946       9.37470652       1.40430691       0.36906284       1.15089691      -0.17242498
Si       4.02123114       9.54756601       6.81089750      -0.04487416       0.25445059      -0.09230118
Si       5.35871783      -0.03652196      -0.02833839       0.05409444       0.07394397       0.60674956
Si       5.38872922      -0.02718225       5.38045659      -0.47945452       0.02652885      -0.44753865
Si       5.41498625       2.67212176       2.53608670       0.38733955      -0.16000777       0.14922276
Si       5.37692963       2.73100368       8.21042831       0.58426071      -0.80593467      -0.14380769
Si       5.43421655       5.52756600      -0.06524141       0.77484456      -0.35269397       0.54823944
Si       5.58360243       5.44226539       5.42108036      -0.22276316      -0.77761733      -0.05594322
Si       5.41387117       8.12875097       2.78665306       0.82466506       0.01317885      -0.96234415
Si       5.34743863       8.09305548       8.06256096       0.49619551      -0.54988187       0.04239295
Si       6.91423834       1.24973101       1.29693748      -0.80397825       0.58733889      -0.41400587
Si       6.69432034       1.17872554       6.81373240       0.64410836       1.29193751       0.38593503
Si       6.70873931       3.90898355       4.05895507       0.01275514       0.39488329      -0.19200803
Si       6.78568172       4.20842996       9.39101137      -0.40144324      -0.23699895       0.20107388
Si       6.84875160       6.77682420       1.39475346      -0.29259452       0.05403226       0.29156026
Si       6.89277592       6.73092167       6.77301312      -0.60785604       1.80969174      -0.51589405
Si       6.80779630       9.52564945       4.01329967      -0.50679065      -0.06995346       0.71796163
Si       6.66850766       9.43835220       9.46065871       0.35843096       0.04920363       0.14280788
Si       8.19697192       0.03394222       2.84552355       0.50729439       0.40401992      -0.79951449
Si       8.14882097      -0.19531592       8.07411824      -0.65655266       0.56016641       0.25665926
Si       8.05584835       2.82011542      -0.13982412       0.99097606      -1.15694382       0.56146917
Si       8.07517194       2.67405897       5.43700658       0.04929666      -0.34622895       1.05646907
Si       8.10860170       5.31762352       2.86105480       0.44052274       0.41760326      -1.21788041
Si       8.21102353       5.53434767       8.10552322       0.91049143      -0.26663645       1.05554455
Si       8.11735726       8.30589865       0.10108708       0.07796973      -0.62110521      -0.13990556
Si       8.17823910       8.21669991       5.37913005      -0.17138317      -0.96960605       0.07387681
Si       9.54809413       1.44261838       4.13181812      -0.00434665      -0.59844036       0.27270135
Si       9.44337980       1.25339292       9.37266776      -0.51403842       1.04430559       0.48988099
Si       9.50722911       4.10291943       1.29787212      -0.48985491      -0.29975674       0.23827160
Si       9.48581717       4.07785845       6.79752857      -0.43574761      -0.44952644       0.10551393
Si       9.52535930       6.77107797       4.07627213      -0.38002115      -0.01695306       0.17697566
Si       9.53823720       6.97150696       9.55378660      -0.64882682       0.09412143      -0.45485287
Si       9.57259795       9.55216805       1.48332026      -0.26621190       0.09779575      -0.57764477
Si       9.56733009       9.45755641       6.73661239      -0.53341406      -0.10176463       0.14049028
64
Lattice="10.862 0.0 0.0 0.0 10.862 0.0 0.0 0.0 10.862" Properties=species:S:1:pos:R:3:forces:R:3 pbc="T T T"
Si      -0.08016537       0.03872032      -0.02071120      -0.02317757      -0.91297749      -0.51138721
Si      -0.16125443      -0.01049681       5.49382985       0.31296069       0.09690664      -0.72860318
Si       0.05970061       2.76722855       2.62436531      -1.31702831       0.02638300       0.40709310
Si       0.09915770       2.71699170       8.15104616      -0.15255741       0.00063176       0.25648276
Si      -0.11418655       5.43432911       0.06344840       0.07863897       0.25998396      -1.02635983
Si       0.03735256       5.53622800       5.49098906      -0.27083343      -1.29182235       0.24652688
Si       0.06980191       8.12531249       2.75407072       0.46738123      -0.89258743       0.48036372
Si       0.06078547       8.27688149       8.20099192      -0.16720249      -0.64122097       1.07422209
Si       1.25178814       1.31070863       1.31464873       1.08618234       0.07896287       0.24493687
Si       1.32065150       1.28160251       6.74460149      -0.00573827       0.83258329      -0.08808421
Si       1.31183033       4.12303542       4.03236370       0.02819412       0.26052016       0.60592373
Si       1.38243728       4.10420322       9.62592234      -0.49164220       0.31955934      -0.81235004
Si       1.35465315       6.73392232       1.29251579       0.38991997       0.78337377       0.50376466
Si       1.35147099       6.87275921       6.89921251      -0.03303578      -0.37771528      -0.16560130
Si       1.33284322       9.50456650       4.19071840      -0.30108462       0.08679848      -0.21960776
Si       1.47743793       9.54649914       9.60352693      -0.32641155       0.34424662      -0.25189354
Si       2.62701337      -0.07581728       2.70140558       0.00400642       0.08177632      -0.28978079
Si       2.70900800       0.09593634       8.14244555       0.20329035      -1.56503383      -0.67317795
Si       2.69612772       2.65404422      -0.01916611       0.06927421       0.52572596       1.14867733
Si       2.63989243       2.73313435       5.37486790       0.44955011      -0.74679587      -0.29128399
Si       2.67945393       5.48577513       2.75609879       1.05788100       0.07222758       0.04192223
Si       2.71303821       5.51520310       8.20619061       0.10110721      -0.93667256      -0.01152778
Si       2.87213376       8.14220202       0.03206570      -0.73043304      -0.49563333      -0.19344378
Si       2.69113795       8.13126822       5.50898199       0.81881437       0.44438185      -0.28978097
Si       4.03528804       1.29434198       3.92401753       0.63573022       1.15728304       0.47293372
Si       3.99084510       1.38209252       9.46695338       1.02882700       0.59342268      -0.35838567
Si       4.06165091       4.05987812       1.42227432      -0.07957403      -0.05470161      -0.32956928
Si       4.01378154       4.08766516       6.72828843      -0.32866580       0.67236022       0.11407277
Si       4.19271789       6.89601105       4.13204863      -1.57398529      -0.17433135      -0.76351172
Si       4.17829120       6.78762709       9.48053836       0.28247560       0.51210825       0.00169100
Si       4.14335825       9.52765784       1.37768167      -0.10600010      -0.00204474       0.40160821
Si       4.16541288       9.56836209       6.69126661      -0.74140650       0.41522042       0.50896061
Si       5.37311923       0.05836153      -0.06752666      -0.44541341      -0.89327404      -0.35648667
Si       5.53059761       0.02746816       5.29331989      -1.01704256      -0.20911994      -0.24619817
Si       5.60916656       2.72699807       2.60880464      -1.36029909      -0.40223092       0.76694896
Si       5.37545597       2.74792396       8.04661738      -0.45037635      -0.00128584       0.97618258
Si       5.47060786       5.40525997       0.05785156      -1.02182858      -0.94059954      -1.12950413
Si       5.42887689       5.50531087       5.42426664      -0.74638011      -1.53156604      -0.29397985
Si       5.54604826       8.14129724       2.71280569      -0.34679370      -0.16130491      -0.59964959
Si       5.48463327       8.22658727       8.05684225       0.26222213      -0.87911786       0.50864817
Si       6.75413631       1.22770078       1.25742033       1.27818022       0.41207272       1.03377768
Si       6.66813411       1.40284368       6.73662350       0.98853100      -0.32069411      -0.11487072
Si       6.77865706       4.10221991       4.11868780       0.27299193      -0.09540831      -0.20387826
Si       6.76487411       3.96616819       9.51912157      -0.36560320       0.71103012      -0.17531096
Si       6.81497216       6.65294048       1.32557153       0.29315788       1.03815734       1.25456706
Si       6.78537454       6.65931299       6.73436625       0.74760338       1.56979035       1.04060404
Si       6.87490121       9.43534298       4.05659854       0.63524638       0.69480165      -0.05860126
Si       6.81295033       9.47996214       9.60020089      -0.86045258       0.33957915      -0.65276977
Si       8.27813299      -0.09559666       2.63885260      -0.86848018       0.03614753      -0.04499554
Si       7.97188935       0.01527131       8.15477522       1.09180013       0.12985684      -0.09003708
Si       8.08740398       2.72219272       0.06823010       0.08180418      -1.20475400      -1.14903900
Si       8.15725362       2.71303737       5.43341866      -0.44288415      -0.05324376      -0.03837856
Si       8.18970663       5.45789908       2.79647491      -0.51988011      -0.70334603      -0.37936267
Si       8.09270506       5.35260441       8.15452280       0.66867443       0.17264749       0.29731730
Si       8.07839950       8.14163707       0.09580949       0.58391685      -0.11167464       0.02849032
Si       8.18640404       8.10952120       5.45441546      -0.14636413      -0.33524028       0.34681336
Si       9.44136480       1.40128784       3.99938353       0.82555177      -0.07580149       0.00195992
Si       9.46948586       1.40697031       9.44003625      -0.35139634      -0.01788712       0.17038062
Si       9.36962658       4.07834407       1.31199914       0.99973386       0.14721024       1.31447550
Si       9.51846185       3.97894120       6.81105889       0.44338505       1.10825996       0.02268270
Si       9.51681103       6.74912066       4.11715292       0.54267787       0.98586392      -0.23502266
Si       9.41255841       6.90120709       9.53382460       0.61548468      -0.85400106      -0.70053525
Si       9.64322723       9.34008468       1.36127062      -0.74834521       1.14844232      -0.46979355
Si       9.48660781       9.44990588       6.89570444      -1.00487949       0.82377084      -0.32926520
64
Lattice="10.862 0.0 0.0 0.0 10.862 0.0 0.0 0.0 10.862" Properties=species:S:1:pos:R:3:forces:R:3 pbc="T T T"
Si       0.03666828      -0.00035127       0.01453380      -0.18690718       0.34561774      -1.80607794
Si      -0.04024393       0.03735779       5.41177600       0.25148273       0.56045041       0.51205760
Si      -0.01963687       2.82118759       2.73276689       0.17485818      -1.02569753       0.39879803
Si      -0.08973046       2.69671860       8.03412753      -0.08676970       0.36676299       0.74488904
Si       0.06451374       5.42474195       0.02697502      -0.68848539      -1.09336343       0.13919312
Si       0.01946848       5.47901950       5.44305434      -0.30920846       0.84434603       0.25045870
Si       0.07235165       8.28152877       2.73348684      -0.20893217      -0.49953624      -0.25361424
Si       0.00829432       8.08167828       8.18299412      -0.75187710       0.54413970       0.05060580
Si       1.21789936       1.40076068       1.37052069       0.68588935       0.33719771      -0.18089636
Si       1.40119571       1.44013945       6.83089129      -0.22825111      -1.27855180      -0.27070648
Si       1.27970578       4.15187176       4.07255821       1.42812680      -0.14468901       0.18039990
Si       1.31654260       3.99816108       9.45612430      -0.19522344       0.10407299       0.06653172
Si       1.32286463       6.76022962       1.38650930       0.40985434       0.65258389       0.63555482
Si       1.42135504       6.79339200       6.92589305      -0.24087755      -1.12302114      -0.57712018
Si       1.40435665       9.52882515       4.20783225      -0.16310231       0.44696987      -1.45020003
Si       1.41792179       9.36087912       9.49249068       0.00499653       1.53718754       0.11040363
Si       2.60233720      -0.07467918       2.46365086       0.25311218       0.01962222       1.76604729
Si       2.81782557      -0.00774636       8.15418312      -1.09544118       0.11427864       0.34537077
Si       2.67263093       2.68258248      -0.00185905      -0.01524694      -0.06837655      -0.14848393
Si       2.70399082       2.68460653       5.38969010      -0.20641256       0.25207171      -0.73170159
Si       2.75986193       5.49673693       2.72453665      -0.48780793      -0.66629839      -0.02879062
Si       2.76725147       5.29078720       8.16456860       0.42421613       0.27193085      -0.32159177
Si       2.70808178       8.02685266      -0.00013478       1.04002196       0.15661963       0.10879372
Si       2.65148416       8.05676827       5.43178350       0.92624145      -0.07623533       0.04126940
Si       3.92634078       1.26048024       3.93889588       0.31655912      -0.15684528       0.57554298
Si       4.14171712       1.33658693       9.54924192      -0.60738384       0.78138172      -0.63849446
Si       4.00095709       4.15198940       1.26604031       0.73457468      -0.26469738       0.42914298
Si       4.13359112       3.98769501       6.68481848      -0.00831588       0.69345155       0.27723747
Si       4.16921459       6.73426544       4.08871986      -0.35699977       0.47965915       0.79566847
Si       4.17149709       6.74023847       9.44344759      -1.23433294       0.00955130       0.26996804
Si       4.15999707       9.50243074       1.34063302      -1.04963843      -0.71001771      -0.47522483
Si       3.98784037       9.52716358       6.69298528       0.74222057      -0.76015480       0.12145462
Si       5.42301239      -0.02710133      -0.05132892       0.61344716       0.46185890       1.21998869
Si       5.42396882      -0.03774425       5.39873114      -0.75211329       0.63263063      -0.46560685
Si       5.29162610       2.72714148       2.76590175       0.74233082       0.09615580      -1.15912694
Si       5.48273549       2.70024324       8.10289940      -0.45591651      -0.03634917       0.46161621
Si       5.50494622       5.57399030       0.02466479       0.02116478      -0.79341853       0.16699739
Si       5.59143986       5.50067830       5.52384023      -0.53280642      -1.24921796      -0.74031077
Si       5.41055063       8.27265743       2.87438519      -0.52230313      -0.94479185      -1.46238690
Si       5.39299529       8.15564122       8.11176486      -0.30889993      -0.44021329      -1.16186354
Si       6.83720083       1.30954423       1.37118803      -0.89396350       0.22388878       0.38581803
Si       6.74670613       1.25422082       6.81374823       0.79150490       0.30914758      -0.25380554
Si       6.82876082       4.07903597       3.98289447      -0.69815519       0.16015394       0.79812844
Si       6.77012026       4.12403048       9.46867066       0.47177053       0.26812734       0.28965958
Si       6.79117670       6.99544635       1.41416103      -0.04052301      -0.68197329       0.28118279
Si       6.92236217       6.69523502       6.95807152      -1.21546743       1.31404775      -0.35560041
Si       6.77946225       9.51704868       4.06435654       1.09293032       0.14933484       1.51789064
Si       6.60963595       9.46790738       9.46176157       1.57309849      -0.45113880       0.77094509
Si       8.19203729      -0.06194739       2.77000509       0.09938654      -0.02660867      -1.36897150
Si       8.07043252      -0.10960419       8.25792959       0.54390549       0.54469506      -1.05969766
Si       8.09885675       2.75663517       0.01884882      -0.32754228      -0.48808038      -0.49200604
Si       8.11441027       2.70352006       5.40657583      -0.46511536      -0.28412105       0.07099351
Si       8.12283027       5.56288371       2.75266957       0.82187638      -0.57152607      -0.71101247
Si       8.30618409       5.47101919       8.19043732      -0.04477167      -1.02275290       1.12580138
Si       8.19894792       8.17393244      -0.01279487      -1.73125529       0.91873833       0.08388487
Si       8.06734652       8.06385797       5.51382893       0.55330691       0.93753333      -0.64140756
Si       9.46628370       1.40774280       3.98838268       0.55078207      -0.13604249       0.90034840
Si       9.40435198       1.40240012       9.47740807       0.60261087      -0.64040683       0.33252793
Si       9.49114683       3.94505470       1.36984757      -0.46210426       2.57745429      -0.36676873
Si       9.45763864       4.10860920       6.70463813       0.41393379      -0.12563605      -0.02284335
Si       9.54486260       6.94535581       4.06743223      -0.11526976      -0.78364597       0.25713947
Si       9.51100389       6.82594386       9.68278121       1.00856133      -0.84373407      -1.41160290
Si       9.58176134       9.49405524       1.23183900      -0.45858080       0.38490396       1.60448683
Si       9.49305933       9.48566752       6.77672503      -0.14676268      -0.10942425       0.46911621
64
Lattice="10.862 0.0 0.0 0.0 10.862 0.0 0.0 0.0 10.862" Properties=species:S:1:pos:R:3:forces:R:3 pbc="T T T"
Si       0.10650559       0.01147992       0.04867002      -1.84969182       0.68092068      -0.09645132
Si       0.02116090      -0.05437809       5.50008864      -0.79587053       0.83686086       0.54912375
Si       0.00002794       2.63704064       2.75282414      -0.13634202       0.65851101      -0.45051652
Si       0.00518239       2.61688597       8.36444581       0.63288934       1.41754865      -1.06090168
Si       0.02635557       5.45758824       0.05177438      -0.84607941      -0.00342728      -0.25750799
Si      -0.06479293       5.35748025       5.37369207       0.12730507      -0.22192039      -0.71107416
Si       0.05102078       8.24639675       2.64574174       0.16296188      -0.75228778       0.52042114
Si       0.08596500       8.08817615       8.15549919      -0.10494879       0.30389457      -1.12965803
Si       1.35899394       1.31924760       1.38702657       0.57033784       0.11901941       0.67228380
Si       1.33994393       1.46518070       6.80108576      -0.12456841      -0.83160806      -0.15867445
Si       1.46077160       4.04249205       3.91852821      -1.12532709       0.70086576       0.54465532
Si       1.34837425       4.09599435       9.60713528       0.70479275      -0.52112469      -0.22459378
Si       1.38225879       6.83700900       1.29686980       0.32176617       0.69718676       0.02015754
Si       1.33222159       6.63448601       6.68944111       0.22217968       0.66333137       0.64690549
Si       1.32406607       9.48389340       4.18591162       0.88875120      -0.67188962      -0.42775350
Si       1.23358270       9.60259377       9.46926609       2.05276718      -0.63111713      -0.68821600
Si       2.67305782      -0.04333025       2.79642331       0.39413387       0.42818858      -0.12536445
Si       2.75196523      -0.00581333       7.98024125      -0.43343380       0.05630327       0.95085875
Si       2.73032501       2.63353331       0.05087737       0.24782627       0.05992739      -1.02754954
Si       2.66105793       2.68591746       5.30354539      -0.00956472      -0.59394870      -0.05912642
Si       2.74442657       5.48153124       2.60368941      -0.15356515      -0.86424867      -0.50111306
Si       2.71101041       5.39371301       8.13633805      -0.27206119      -0.37587758      -0.17983899
Si       2.76505094       8.25939736      -0.04502430      -0.84541575      -0.43227092      -0.51110065
Si       2.77253573       7.97029902       5.40839530      -1.07553383      -0.19754655      -0.87796565
Si       4.14298233       1.39160025       4.01737661      -0.46249135      -1.05765788       0.56805694
Si       4.17357829       1.28881488       9.43457800      -0.87799257      -0.12062613       0.35974016
Si       4.10625949       4.05514272       1.24549426       0.05418698       0.30748664       0.91268074
Si       3.92797186       3.96155879       6.65915133       0.70541432       1.21572004       0.83864531
Si       4.09652184       6.69514278       3.95416814       0.75260780       0.52993063       0.60969837
Si       4.04593826       6.86695303       9.38165319       0.24820466       0.19144827       0.23907084
Si       4.07082896       9.55799932       1.35992741      -0.86422109      -0.49692633       0.74524423
Si       3.99815970       9.34061920       6.68951022       0.38659623       1.15640974       0.50886340
Si       5.41360351      -0.15544422      -0.00107555       0.37965939       1.78516395      -0.15217802
Si       5.40183302      -0.11541583       5.47179528      -0.15805582       1.73225252       0.04846172
Si       5.47015165       2.72508171       2.69466799       0.29140475       0.49409529       0.12841510
Si       5.35375055       2.76917185       8.06562643      -0.45660969       0.75212023       1.11982560
Si       5.35907815       5.57560265      -0.00252693       0.14194946      -0.02549132      -0.37975087
Si       5.41409882       5.34838591       5.41511669       0.05122870       0.27659672       0.07981797
Si       5.42038857       8.22634517       2.70179891       0.14309657      -0.79849333      -0.13273553
Si       5.46725224       8.25485803       8.06469979       0.38339642      -1.05569685       0.44195696
Si       6.73752004       1.22796246       1.43148778       0.14080494      -0.02441008      -0.28642552
Si       6.71032091       1.48928567       6.87187982       0.16593138      -1.74487241      -1.25600858
Si       6.88538834       3.99366725       4.19230630      -0.10096541       0.18483105      -0.79092563
Si       6.64212669       4.12036503       9.55325001       0.76366038       0.02989318      -0.29672023
Si       6.82478184       6.90311980       1.29413755      -0.13086513       0.00618013       0.06649253
Si       6.82287071       6.79880341       6.72474067      -0.28846331      -0.04689025       0.13483118
Si       6.74503774       9.50848088       4.10529364       0.17015403      -0.52833091       0.27620708
Si       6.81588414       9.54493971       9.51805745       0.19922447      -0.60693764      -0.37004612
Si       8.12400076      -0.08211280       2.83547395       0.57247758       1.45177290      -0.27264975
Si       8.02070151       0.08899348       8.13621925       1.53845101      -0.07895973       0.59620140
Si       8.00901584       2.70632772       0.10829284       0.28848032       0.49877296      -0.15512868
Si       8.24222509       2.68016308       5.63846244      -0.01030132       1.04339722      -0.15408188
Si       8.07495318       5.40993621       2.61802625       0.07420788       0.31622642       1.06125914
Si       8.13963588       5.49483152       8.21672600      -0.60281544      -0.26438364       0.04143479
Si       8.28875474       8.27663283      -0.01320287      -0.42722642      -0.73493713      -0.30471217
Si       8.18348218       8.19779775       5.38607772      -0.13969779      -1.09393886      -0.48811174
Si       9.50825254       1.42859132       4.18523559       0.01060211      -1.50120342      -0.15296686
Si       9.48051698       1.44922892       9.66291839      -0.94421412      -1.63778177      -0.02618189
Si       9.50771225       4.07486172       1.41466079      -0.03710022      -0.43328367      -0.49888715
Si       9.59832591       4.13056640       7.02384613      -0.23709254      -0.68099098      -0.76638115
Si       9.51716806       6.81931078       3.91188932      -0.27636991      -0.20135568       0.64031874
Si       9.57662631       6.84408299       9.44276823      -0.37862795      -0.47505840       1.29243463
Si       9.54383679       9.60487003       1.40695041       0.00527317       0.09730363      -0.14560285
Si       9.45339681       9.42206386       6.83605442       0.37278883       1.01333393       0.50283805
64
Lattice="10.862 0.0 0.0 0.0 10.862 0.0 0.0 0.0 10.862" Properties=species:S:1:pos:R:3:forces:R:3 pbc="T T T"
Si       0.00010906      -0.00959277       0.03369076      -0.11670016      -0.47749559      -0.20802049
Si      -0.08691720      -0.02320744       5.38755788       0.94254429       0.33520681       0.34277227
Si      -0.06071218       2.72672173       2.66476011       0.70625476       0.29772970       0.54118981
Si       0.01926745       2.60551009       8.15303502       0.11740689       0.72716019      -0.15611849
Si      -0.11014787       5.39432760      -0.06790772      -0.32683140       0.29085711       0.26841083
Si       0.00565304       5.38770505       5.51007178       0.44176354       0.59943182      -0.24525835
Si       0.04667110       7.95592762       2.76007556      -0.49515614       1.25589202      -0.25785496
Si      -0.07702756       8.04002298       7.99837361       0.00254515       1.01111221       1.59050025
Si       1.37264015       1.45040560       1.21933889       0.09095437      -0.37467465       1.20843668
Si       1.40806941       1.35202060       6.72354029      -0.04240546      -0.20487374       0.12197161
Si       1.41672818       4.18408162       4.04589048      -1.02501690      -1.00339115      -0.14095041
Si       1.29512960       4.12482811       9.54825479       1.03262158      -0.96977182      -0.82296128
Si       1.25893600       6.61617261       1.32517734       0.79796691       0.98202537      -0.44099296
Si       1.41495506       6.83707071       6.80316563      -0.20082449      -0.22030931      -1.21654325
Si       1.32569102       9.54654555       4.00203386      -0.75372631      -1.32665443       0.93553130
Si       1.32707233       9.40907478       9.55745379      -0.40657692      -0.14032608      -0.46553994
Si       2.62688811       0.01980218       2.80427122       1.36296965       0.76163579      -2.02402777
Si       2.68883804      -0.01895645       8.24564400      -0.90305329      -0.13107138      -0.65251547
Si       2.86912824       2.77147557      -0.01352461      -1.40008360       0.61434710       0.10112877
Si       2.75576599       2.87269781       5.44602128       0.01341083      -0.64917748      -0.12752974
Si       2.73158857       5.48975941       2.67616292       0.15473790      -0.16362006       0.34080448
Si       2.67414110       5.61410606       8.24075413       0.83473557      -0.96448387       0.20741137
Si       2.72920468       8.14106022       0.11387708      -0.41366120      -0.67266368      -0.45919499
Si       2.75120200       8.21617671       5.39609854      -0.70242933       1.34454337       1.19832974
Si       4.07190324       1.40119735       4.05150352      -1.06589613       0.68903679      -0.01671278
Si       3.99392708       1.24497921       9.60868953       1.40387898      -0.13059118      -0.34656237
Si       4.11135716       4.06327194       1.44318862       0.57553124       0.90807079      -0.68866188
Si       4.09519625       4.25726042       6.78892066      -0.60387602      -0.28882924       0.38547151
Si       3.98502394       6.88583433       4.10796604       1.38043215      -1.26908693      -0.95662669
Si       4.18240312       6.91189837       9.53408660      -0.15925336       0.03763556       0.14836709
Si       4.18206323       9.37342427       1.41366593      -1.18545134       0.49109939       1.18303642
Si       4.11328908       9.66287526       6.83373446       0.07958470      -0.63751962      -0.65434935
Si       5.46104017      -0.28237356      -0.01114812       0.17764196       1.50716623      -0.70007177
Si       5.40662493       0.11558527       5.31743434       0.21536488      -0.74114047       1.25863691
Si       5.43845754       2.65340682       2.67389006       0.48020534      -0.23293500      -0.31595808
Si       5.22429264       2.65187173       8.08927499       0.27081324       0.30199456       0.74194941
Si       5.56441155       5.48768335       0.01883871      -1.19836428      -0.50360389      -0.08967305
Si       5.48196733       5.43966073       5.31664518      -0.64461503       0.27272661       0.00938142
Si       5.53696726       7.96304876       2.68704037      -0.20796139       1.32094779       1.01255938
Si       5.56015692       8.24905878       8.06969284      -0.84603911      -1.12519947      -0.38787888
Si       6.75739001       1.25036825       1.24880077       0.26982616       0.07319259       0.57452228
Si       6.69586374       1.43931827       6.76954097       0.45211876      -0.68527159       0.25977867
Si       6.80108877       4.08145050       3.94228504      -0.22388990      -0.51155554       0.55311788
Si       6.65208268       4.01868278       9.44450552      -0.02710573      -1.50107214       1.02487225
Si       6.94187272       6.81720714       1.28984455       0.05438860      -0.33330147       0.15164985
Si       6.80813561       6.68550202       6.75273224       0.37964265       0.63052384       0.30580007
Si       6.79348248       9.53372792       4.15752057      -0.73372534      -0.83865032      -0.84063411
Si       6.93432141       9.44951551       9.40562185       0.07341856       0.15641845       0.83952716
Si       8.09178689      -0.00476529       2.81242685       0.47716198       0.45848131      -0.67203816
Si       8.20225401       0.05641733       8.15664041      -1.52975300       0.09237970      -0.99068533
Si       8.20200005       2.68363131       0.01161126      -1.05982675       0.09455367      -0.60063791
Si       8.06810017       2.75872563       5.45870449       0.28346297       0.76112494       0.05601848
Si       8.16859839       5.45656265       2.71696746       0.12281587       0.72552979       0.42873821
Si       8.05803327       5.21212178       8.20082718       0.45004886       1.92168954      -0.61187468
Si       8.30379131       8.13147121      -0.04218955      -1.07752133       1.27020321       0.63152873
Si       8.14227849       8.24599855       5.50410551      -0.24290116      -1.09677160      -0.04108797
Si       9.45604577       1.43164626       4.18122771      -0.00588582      -0.24965797      -1.18722843
Si       9.49194912       1.27142966       9.47778172       0.92967383       1.06032285       1.13485821
Si       9.43192799       4.13878727       1.37709524       0.54711416      -0.86211414      -0.28199480
Si       9.50748385       4.07783961       6.83728698       0.15457446      -1.05268525       0.01456356
Si       9.49603320       6.79635459       4.19898753      -0.11149234      -0.14541772      -0.09943045
Si       9.38538442       6.77507791       9.46998027       1.06142772      -1.30572436      -1.34557506
Si       9.48975901       9.48090365       1.43178867       0.76222527       0.04193339       0.50128751
Si       9.46438126       9.56560672       6.81466651       0.61075950      -0.22533138      -0.02696228
64
Lattice="10.862 0.0 0.0 0.0 10.862 0.0 0.0 0.0 10.862" Properties=species:S:1:pos:R:3:forces:R:3 pbc="T T T"
Si      -0.00152805      -0.00442180      -0.00075275       0.07177759      -0.91024602      -0.34778305
Si       0.02243251      -0.01654848       5.37180068       0.82745274       1.12143948      -0.18965414
Si       0.05139909       2.74067767       2.81598827      -0.39099951       0.12660903      -1.75403059
Si      -0.01195406       2.77103265       8.09253562       0.27717900      -0.36613232       0.34368648
Si      -0.08346199       5.43648011       0.03785755       0.80985518      -0.07735147      -0.03046604
Si       0.02443984       5.45855733       5.37332693       0.69954855       0.93415997      -0.04588506
Si      -0.11426434       8.24807477       2.70661781       1.19468232      -0.11512243       0.08097992
Si       0.05878100       8.01663351       8.04629347      -1.92628838       1.60947803       0.63440243
Si       1.32036982       1.33751855       1.37424276      -0.01770782      -0.24859716       0.56940724
Si       1.42273016       1.40204938       6.73388517      -0.61103400      -0.47684380       0.53936547
Si       1.35162970       4.04703218       4.12202474       1.58976554       0.48908795       0.14692610
Si       1.34352762       4.14788171       9.48270466      -0.20709471      -0.95738378       0.63612158
Si       1.27479840       6.89022682       1.34377660      -0.23820636      -0.29608026       0.14023808
Si       1.36619630       6.70319797       6.94099344       1.04403118      -1.41900396      -2.10389258
Si       1.43383060       9.56366274       4.01210887      -0.89885582      -1.05795878       0.64756518
Si       1.33145005       9.41695285       9.30243721      -0.26560323       1.67038286       0.91248889
Si       2.75014163      -0.06600554       2.63605209       0.68120970       0.38757975      -0.73868397
Si       2.75837664       0.07849926       8.19971639      -0.18040900      -0.26278475      -0.60040879
Si       2.65224057       2.67283361       0.06227379      -0.07927762       1.13369939      -0.18530493
Si       2.85870647       2.58911412       5.38960665      -0.91690511       1.11969941      -0.21875473
Si       2.69235506       5.61398720       2.76846974      -0.61756470      -0.46376595       0.16223566
Si       2.78961021       5.25128713       8.07363172       0.25529761       0.14807073      -0.06770722
Si       2.55413958       8.11981111      -0.17522883       1.10240351      -0.89090634       0.24480086
Si       2.61262620       8.12027609       5.54579939       0.05790568       1.00628350       0.07900240
Si       4.10998495       1.32812507       3.99190070       0.61403310       0.12918157      -1.08246274
Si       4.06909204       1.38347796       9.63606079       0.60265108      -0.79426223      -0.03489069
Si       3.92552701       4.19135166       1.39283482       0.66890156      -0.73588508      -0.00645437
Si       4.21956962       3.93859239       6.70543443      -0.17898864       0.24365699       0.48509168
Si       4.01880259       6.94760588       4.17933765       0.39997398      -1.22877600       0.24889652
Si       4.04968172       6.72817620       9.36008281      -0.50701813      -0.38579939       1.30893345
Si       4.03219368       9.35936959       1.15981761      -0.27913953       0.50317057       0.90107063
Si       4.10022327       9.54074741       6.79494254      -0.46877445       0.43795717      -0.39004217
Si       5.51563835      -0.13802095       0.00121044      -0.12502775       1.31159571       0.32958028
Si       5.45702700       0.05071195       5.37295598       0.02062858       0.07729132       0.82897046
Si       5.51584102       2.89744859       2.69147578      -1.05480021      -0.87503241       0.22551840
Si       5.48453823       2.58001492       8.20974583      -0.95599063       2.03384393       1.03818987
Si       5.38540329       5.38147854       0.00860389      -0.30874518       0.35618962      -0.87650793
Si       5.48653032       5.51152574       5.49386297      -0.55362180      -0.00819979      -0.23853650
Si       5.32236140       8.19303500       2.76891647       0.14035543       0.52739026      -0.54579121
Si       5.32855214       8.14352412       8.14885336       1.34637268       0.29845162       0.12470886
Si       6.84286668       1.41131041       1.41066846      -0.85011696      -0.73063356      -0.15670479
Si       6.75770825       1.37661771       6.92300496       1.91717402      -1.53118161      -1.74589354
Si       6.79164396       4.03396510       4.26886136       0.29257888       0.71100358      -0.83911125
Si       6.86535047       4.17002106       9.42399001      -1.14177595      -1.41733131       1.17029524
Si       6.57303414       6.75164314       1.44623293       1.26548262      -0.12571371       0.01563916
Si       6.81459623       6.83373377       6.86882594      -0.03835760       0.55680687      -0.46715078
Si       6.77534012       9.62456336       3.97547377      -0.72839284      -1.35053056       1.04560605
Si       6.86295462       9.30068373       9.62445594      -0.79244213       0.93887055      -1.71273888
Si       8.15160296      -0.04922322       2.73412429       0.64957937       2.12232930      -0.38796432
Si       8.17028048      -0.16394873       8.15419344      -0.02693904       0.56878225       0.37012881
Si       8.09845087       2.73420435       0.01944409       0.47897196      -0.34184190      -1.13501871
Si       8.25834383       2.80205884       5.55000058      -0.53431171      -1.12630593       0.07868775
Si       8.05483973       5.42551111       2.78611341       0.08519288      -0.64455305      -0.59352733
Si       8.17728160       5.46134334       8.15600455       0.89649554       0.78104549      -0.52620215
Si       8.12252748       8.01952366       0.07806486       0.21112397      -0.61020105       0.79838616
Si       8.10034987       8.20941388       5.35445764       0.58667183      -0.47935264       0.12772515
Si       9.55285096       1.43008614       4.04735424      -0.92598704      -0.92851819       0.88948034
Si       9.51551248       1.30812249       9.52431100      -0.56125180       0.62546839      -0.60762345
Si       9.45703612       4.01659512       1.33706256       0.11471830       0.52076013       1.14070268
Si       9.61511236       4.24577606       6.74208403      -0.86365473      -0.92824787       0.97068885
Si       9.53612790       6.75710864       3.97201776      -0.76230000       0.58390593       0.80584519
Si       9.55821994       6.82283441       9.50897010      -0.59734057      -0.26709641       0.11484049
Si       9.39388851       9.51266080       1.36199141       0.59603867       0.04263004      -0.90077811
Si       9.61054117       9.52542005       6.69609430      -0.89313010      -1.06518166       0.37376369
64
Lattice="10.862 0.0 0.0 0.0 10.862 0.0 0.0 0.0 10.862" Properties=species:S:1:pos:R:3:forces:R:3 pbc="T T T"
Si      -0.02475285       0.11130867       0.04658627       0.18694595      -0.57129961       0.56040179
Si      -0.04981066      -0.03496867       5.59490888       0.01062441      -0.14878051      -0.44546892
Si      -0.04414015       2.61678898       2.88246155       0.80201418       1.09757150      -0.87392056
Si       0.08240067       2.84464094       8.18435993      -1.34153217      -1.26756603      -1.16785126
Si      -0.11506747       5.39178612      -0.01629030       0.96917808       0.41734767       0.12581976
Si      -0.08134173       5.57858472       5.32481647       0.84543632      -0.70961614       0.30867406
Si       0.08700573       8.31138352       2.73571018      -1.17151232      -0.77515999      -0.57149189
Si       0.20653982       8.19960934       8.15091418      -0.87042534      -0.52707458      -0.11242000
Si       1.42863800       1.38486266       1.46338912      -1.20133411      -0.32301243      -0.05331828
Si       1.33041980       1.39170418       6.82812983       0.01948449       0.18336540      -0.09078681
Si       1.35350415       4.12543269       4.07921695      -0.26936854       0.52079942      -0.35392504
Si       1.36346517       4.08646244       9.46507665       0.74480357       0.57875565       1.99902240
Si       1.30693052       6.87675836       1.30204293      -0.17311487      -0.52077349      -0.33126576
Si       1.43112989       6.72391135       6.74914161      -0.89060272       0.89236990      -0.60525406
Si       1.32772787       9.59502093       4.14869898       0.49045017       0.01135703       0.43872490
Si       1.34866815       9.69288088       9.51222237       0.05203344      -0.50059100       0.53229801
Si       2.73542786      -0.02216718       2.74794274       0.25995210      -0.35324138       0.00642791
Si       2.71206596       0.06966909       8.15656453       0.19049531       0.70391640       0.16754003
Si       2.71060527       2.73138331       0.15666207       0.06957755       0.13212392      -1.81243978
Si       2.63335101       2.74441789       5.41820423       0.78482771       0.15164517       0.46095554
Si       2.72461561       5.46029514       2.56489315      -0.08386579       0.27808596       1.14862043
Si       2.66773911       5.38657541       8.06694879       0.74088253       0.23669746       1.14298742
Si       2.66369053       8.21165669      -0.07645828       0.44906742      -0.25058362       0.29144497
Si       2.71916963       8.12749518       5.37822849      -0.06433886       0.56415836       0.30057961
Si       4.01453641       1.46224223       4.00324668       0.63920765      -0.33444961       0.54318598
Si       4.10122421       1.42064239       9.52728201      -0.51013893       0.24764191       0.00499225
Si       4.11942119       4.00235666       1.41593272       0.24534073       0.70521633      -0.33569937
Si       4.08190496       4.07890553       6.85448206       0.57288624      -1.06320862      -0.55972012
Si       4.12383151       6.86953419       4.02945365      -0.94961607      -1.62385511       0.34344940
Si       4.04239246       6.79182457       9.44633738      -0.08894802      -0.28561230       0.08635286
Si       4.09411514       9.34324117       1.47334209      -1.14587926       1.47949672      -1.42005244
Si       3.96384383       9.60582340       6.77701587       0.72898697      -1.08836759      -0.33820784
Si       5.28080993      -0.09115585      -0.06446532       1.33434918      -0.44330338       0.74145910
Si       5.36959581       0.08467253       5.46021238      -0.27170355       0.20804346      -0.27221842
Si       5.53721100       2.65740989       2.64500052      -0.33098907      -0.49185103      -0.12708483
Si       5.61674152       2.76728174       8.29115424      -1.31447237      -0.53528458      -1.21835534
Si       5.42457362       5.39526567       0.02397342      -0.93674503       0.30833969      -0.29580461
Si       5.40852283       5.37811218       5.38409299      -0.09049896       0.37043389       0.31367221
Si       5.44193497       8.16378033       2.78396569       0.82400725       0.13646898       0.14854366
Si       5.38506202       8.06688121       7.98662699      -0.29447278       1.36794744       1.26966163
Si       6.86808996       1.26524527       1.24139483      -0.87452100      -0.12746862       0.09186346
Si       6.83786034       1.32956496       6.82477511      -0.08364587       0.61991339      -0.36418816
Si       6.73968744       4.06777228       3.97692689       0.92575223      -0.30016387       0.95897867
Si       6.84484421       4.06669270       9.64749557       1.54331658       0.32841344       0.17512452
Si       6.63392132       6.81626759       1.38103703       1.00579156      -0.16275918      -0.52966988
Si       6.76439467       6.71409310       6.84002732      -0.13197462      -1.11258487      -0.73558114
Si       6.71660664       9.53074850       4.13666586       0.79140759       0.21218287       0.23507782
Si       6.81924876       9.40018270       9.51351637      -0.90579268       0.48430074      -0.74247130
Si       8.15562831      -0.03272427       2.68872845      -1.03993541      -0.21800972       0.61195380
Si       8.17755598      -0.02833797       8.12291230       0.10583076      -0.54691463       0.73598269
Si       8.33354811       2.65942145       0.09401050      -0.82393270       0.49019249      -0.55871731
Si       8.22507102       2.60435130       5.32202580      -0.94860363       0.87415697       0.48933636
Si       8.04973466       5.49222369       2.66721798       0.13985170      -0.14567656       0.18594108
Si       8.18334836       5.36683536       8.10858085       0.05078070      -0.26536842       0.15066809
Si       8.11966839       8.02633185      -0.01780607       0.33616021       0.20064089       0.13284201
Si       8.03714648       8.02899239       5.49241710       0.72177789       0.76718657      -0.96101609
Si       9.52174174       1.18669796       4.07624043      -0.01180449      -0.07566233       0.37809372
Si       9.57942571       1.35785113       9.46935060      -0.26095542       0.57068584      -0.54915973
Si       9.50744062       4.11456816       1.49405658       0.25575945      -0.75761979      -0.10537967
Si       9.58365706       4.06947242       6.63150235      -0.50067405      -0.13704208       0.65511049
Si       9.46327830       6.84315873       3.95196989      -0.26957161       0.85698351       0.13806929
Si       9.56675853       6.78747532       9.39448039      -0.19196619       0.11047849       0.26772622
Si       9.40406638       9.51138437       1.35285982       1.13708449      -0.61821384      -0.72027366
Si       9.47957304       9.35542018       6.82358976       0.06887208       0.17419744       0.11016020
64
Lattice="10.862 0.0 0.0 0.0 10.862 0.0 0.0 0.0 10.862" Properties=species:S:1:pos:R:3:forces:R:3 pbc="T T T"
Si      -0.16671792      -0.02228916       0.11117585       0.74459502       0.62685856      -0.96642858
Si       0.09850486      -0.03219953       5.40374071       0.04712002      -0.02727124      -0.64844035
Si       0.06825725       2.78012735       2.62309285       0.40873547      -0.58242912       1.88605074
Si      -0.09166212       2.83980225       8.14922267       0.65329055      -0.08786038       0.04560234
Si      -0.00210681       5.51713534      -0.09279234      -0.92730384      -0.01155416       0.43743701
Si       0.09983505       5.44786795       5.44767168      -1.30906099       0.39121887       0.32704435
Si       0.10688644       8.13377593       2.73152502      -0.31156381      -0.80133499      -0.07082239
Si      -0.02551407       8.17024185       8.16553556       0.54401795       0.55370271      -0.03596888
Si       1.34412115       1.29358673       1.43785997      -0.07451573      -0.89562381      -0.24157178
Si       1.24300385       1.42639275       6.79518194      -0.37861536       0.27307319      -0.00477299
Si       1.40035469       4.15778341       4.13350206      -0.08777943      -1.36845176      -0.48190956
Si       1.35979617       4.11221274       9.56029336      -0.19221372      -0.46518902      -0.40473930
Si       1.44270226       6.78805874       1.27596915      -0.65927224       0.50215331      -0.23419159
Si       1.38377525       6.79737977       6.86307225       0.45128856       0.09315471      -0.08305927
Si       1.51760951       9.35499795       4.09749584      -0.49215506       0.68688654       0.63819355
Si       1.36035308       9.54522440       9.58351043      -0.93527142       0.21952792      -0.38444201
Si       2.77512965      -0.15907152       2.70717927      -0.23427163       1.27970366       0.25783193
Si       2.53916508       0.10429702       8.10757177       1.22418901      -0.96143518       0.48972105
Si       2.59580588       2.70262464       0.10856753       0.56028445      -0.01267135      -0.53330259
Si       2.68638975       2.69881314       5.52607097       0.26682434       0.00491557      -1.26350304
Si       2.63859854       5.43049056       2.69714332       1.29786454       0.81984018       0.57481242
Si       2.76178067       5.37728544       8.19369758       0.00514976       0.55939845      -0.00335524
Si       2.79623075       8.12140594      -0.15543141      -0.66430018       1.08867879       1.97459960
Si       2.90071568       8.15410015       5.54431388      -1.42915032      -1.15679340      -0.56301699
Si       4.07724677       1.33474746       4.06649685      -0.47709946      -0.12021494      -0.02968549
Si       3.94702573       1.41732429       9.49352204      -0.18473341      -0.89549885       0.80341432
Si       4.00492878       4.05518130       1.41931157       0.06636706      -0.43024639      -0.08774769
Si       4.07463676       4.06054710       6.76139059      -0.12339760       0.78377062      -0.00691514
Si       4.16889412       6.88189503       4.06785964      -1.34779679      -0.17044161      -1.19715222
Si       4.12592557       6.77620469       9.60431942       0.71483442      -1.01993097      -1.74584543
Si       4.13964052       9.47383268       1.34928481       0.27749276      -0.28200817      -1.00852458
Si       4.08906377       9.47326562       6.86321867       0.10992181       1.54157635       0.95459818
Si       5.47949533      -0.01406564      -0.08416564      -1.05446680       1.40913252       1.08966637
Si       5.37757972      -0.08232177       5.38905397       0.47082969       0.25816225       0.40810152
Si       5.43578614       2.67704908       2.67294918      -0.06122648       0.71541647       0.90288288
Si       5.25696393       2.71583322       8.18202134       1.58818427       0.19175148      -0.46391082
Si       5.37910253       5.31853788       0.03195320       0.36370166       0.31130949      -0.01279840
Si       5.34564186       5.54446554       5.39623856       0.93502123      -1.34034142       0.47998792
Si       5.54816396       8.15704333       2.68515343      -0.38198821      -0.90841438      -0.73061713
Si       5.47935600       8.14049082       8.19514038      -0.10505944      -0.43002087      -0.24338271
Si       6.85084032       1.45774158       1.33865686      -0.15175848      -1.27087673      -0.45111000
Si       6.69061387       1.36938221       6.79044612      -0.42732083      -0.11037935      -0.21558924
Si       6.77211473       4.12682454       4.12332969       0.13297491      -0.88995511      -0.12919598
Si       6.75332280       4.12866316       9.40200545      -0.17182925      -0.44420986       0.36541253
Si       6.82455323       6.63786702       1.32998074      -0.23414203       0.03550712       0.65664261
Si       6.79448903       6.85814916       6.65374795      -0.51319104       0.01374969       0.83539379
Si       6.78970464       9.42315084       4.06088980       0.79911575       0.70151664       0.90859347
Si       6.76580556       9.49946454       9.54931309       0.92985445      -0.52035978      -0.28486448
Si       8.12324716      -0.02989274       2.75138610       0.22391362       0.44250693      -0.20151080
Si       8.00638139       0.06794747       8.17191718       1.05050937      -0.39622442      -0.24073840
Si       8.15957168       2.81440645      -0.03103989      -0.62101464      -0.06870306      -0.41035092
Si       8.19271892       2.60919576       5.45291603      -0.77261019       0.33785818      -0.64630812
Si       8.24768106       5.32903708       2.72884215      -0.74659227       0.02024913      -0.24504366
Si       8.07524385       5.48318465       8.01059237      -0.08993897      -0.33216973       0.02221396
Si       8.09382591       8.08728449       0.06868043       0.34052931       0.27422228      -0.62259999
Si       8.27085590       8.13022743       5.45191726      -0.15348729       0.76763065      -0.56992367
Si       9.60824877       1.33650914       4.03360426      -0.27215312       0.00862764      -0.18052464
Si       9.42920637       1.48240124       9.44069841       0.19555196      -1.25449447       0.63427707
Si       9.55634168       3.98085846       1.34181510       0.09219574       1.70598828      -0.87104679
Si       9.43351806       4.07363995       6.71305850       0.60125724       0.62044249       0.12329815
Si       9.50392001       6.73394576       4.03756896       1.14061810       0.35146454       0.29524892
Si       9.36684670       6.85633747       9.35362696       0.53918791      -0.40495872       1.11773637
Si       9.49028724       9.40293786       1.45357912      -0.40159936       0.23342614      -0.04223834
Si       9.57419543       9.60666257       6.79954945      -0.78854156      -0.16335806       0.32838813
64
Lattice="10.862 0.0 0.0 0.0 10.862 0.0 0.0 0.0 10.862" Properties=species:S:1:pos:R:3:forces:R:3 pbc="T T T"
Si      -0.12874934       0.04076040      -0.08215037       2.17857476      -0.72044707       0.97524962
Si      -0.03981550      -0.02637218       5.47783324       0.89871514       1.24654448      -0.28792661
Si       0.05439635       2.80579679       2.79399270      -0.89836334      -1.11438583      -0.72233524
Si      -0.04035278       2.65953073       8.09726408      -0.70806606       0.78416318       1.24650484
Si       0.15532193       5.49568048       0.14290473      -0.81234505      -0.77748057      -1.07208363
Si       0.07971229       5.39458134       5.34840967      -1.00169900       0.35630744       0.33165744
Si       0.02594757       8.25497858       2.74552128      -1.27076725      -1.04887612      -1.08800276
Si      -0.06608354       8.09631373       8.08866331       0.77008857      -0.02220089       0.00906565
Si       1.34825900       1.43814250       1.36353671      -0.87160521      -0.09636332      -0.94087801
Si       1.34405855       1.41005954       6.88649136       0.79576106      -0.97456731      -1.59088016
Si       1.38639124       3.99776943       4.11906722       1.23949053       0.44755909       0.23070382
Si       1.33992710       4.02684973       9.44769995      -0.29750719       0.46235844       0.45460441
Si       1.41488161       6.93889271       1.38090463       0.81115570      -0.51625455       0.75356598
Si       1.37591888       6.70322089       6.72924709      -0.53167206       0.41856305       0.86308514
Si       1.24055339       9.59713997       4.00288208       1.55063940       0.74077150       0.86040044
Si       1.34893364       9.44462850       9.48974150      -0.23580833       0.27122517      -0.05782351
Si       2.68466040       0.12632190       2.66435365       0.51148684      -0.81507936       0.49625042
Si       2.69900618      -0.01307110       8.12569016       0.08978331      -0.57564093       0.39109679
Si       2.70556650       2.64503376      -0.14249943      -0.37471908       0.01719385       0.40446198
Si       2.81305911       2.66924266       5.45585127      -0.06504759      -0.00731443      -0.12937915
Si       2.72597564       5.35267045       2.71256508      -0.24293314       0.54945819      -0.14623349
Si       2.71442249       5.40663197       8.15936811       0.54303281       0.17564168      -0.10805396
Si       2.84283274       8.13628159      -0.04125704      -0.52772545       0.48572793       0.04885657
Si       2.53210189       8.14756470       5.38799377       0.84468750      -0.02771710      -0.88637831
Si       4.23261457       1.36411066       3.97559453      -1.32468652      -0.26745214       1.00598494
Si       4.11005057       1.29388720       9.50606820      -0.35218047      -0.06964664      -0.77942357
Si       3.97466746       3.95838769       1.26672602       0.17460732      -0.16771321       1.18627752
Si       4.15183917       4.09042042       6.80137336      -0.66218884      -0.56264601       0.52540030
Si       4.05284625       6.78388263       4.08298051      -0.15287160       0.58393404      -0.54681109
Si       4.18444019       6.78653026       9.47854236      -0.86899032      -0.74543083       0.25497718
Si       4.08604339       9.59090399       1.32690140      -0.04298161      -0.26678390       0.46009648
Si       3.97903354       9.40157740       6.72270175      -1.16429107       0.30202184       0.51817390
Si       5.46139123       0.10079000       0.03948546       0.17229304      -1.34011740      -0.62956660
Si       5.26976425      -0.04855661       5.55329656       1.48771683       0.64901876      -1.40660163
Si       5.53539825       2.73221946       2.69488622      -0.06224620       0.87225144      -0.35533075
Si       5.44641546       2.63077815       8.15764929       0.33429151       0.50340580      -0.08972646
Si       5.33414787       5.36266258       0.12077501       0.79411405       0.80529959      -0.61134544
Si       5.37646839       5.47440174       5.46283176       0.67186732       0.49662199       0.10648939
Si       5.50825913       8.22262230       2.70419265      -1.31369249      -0.82395877      -0.35040172
Si       5.33708629       8.20786207       8.11131083       0.97866917      -0.78839484      -0.30295584
Si       6.82975774       1.31627462       1.36404679       0.33124745       0.72813818       0.49539928
Si       6.81844303       1.36712596       6.68274088      -0.51831521      -0.77310842       1.23722862
Si       6.79001045       4.21138118       4.12317739       0.14740182      -0.69236461      -0.40129593
Si       6.69980023       3.99425363       9.66859704       0.53095828      -0.17278142      -0.66238305
Si       6.79548325       6.77424012       1.36479573      -0.42720569       0.47277080      -0.58687154
Si       6.81793878       6.77642218       6.85242346      -0.36627613       0.17534223      -0.09825034
Si       6.69836992       9.53843501       4.08525999       0.93180364       0.50820006       0.94044444
Si       6.72090509       9.45139843       9.45768632       0.64487131       0.80695429       0.53058449
Si       8.14496660      -0.02053372       2.68474750       0.26267050      -0.94495392       0.02819084
Si       8.18042116       0.01489105       8.16846234      -1.03921152       0.32482196       0.10081506
Si       8.20384678       2.73135886       0.15385579      -0.20121705       0.58506571      -0.30895685
Si       8.13329835       2.70429150       5.40170507       0.74204954       0.45738195      -0.84764817
Si       8.13774836       5.59158999       2.76141216       0.25315473      -0.80950813       0.35345261
Si       8.07212367       5.25152479       8.15213045       0.58180885       0.59529682       0.62871869
Si       8.16984100       8.00527356      -0.13744558      -0.47768587       0.50479878       0.37467247
Si       8.13272578       8.21538617       5.50400905      -0.23662517       0.08316871      -0.18887752
Si       9.54022156       1.28305637       4.02602104      -0.29966681       0.84937111       0.22924050
Si       9.44303600       1.38685570       9.59439058      -0.33267303       0.79322737      -1.36271474
Si       9.53122417       4.18285160       1.48737307       0.19180592      -0.00167646      -0.23678751
Si       9.56548961       4.06355315       6.74267809      -0.69190789      -0.16347030      -0.17711288
Si       9.49312537       6.87289727       4.13729748       0.64127337       0.16275911      -0.07862286
Si       9.58859810       6.66662278       9.48423482      -0.45814010      -0.58643794      -0.33451768
Si       9.50963930       9.44594118       1.20667086      -0.76833536      -0.00535821       0.90317115
Si       9.52159421       9.60978000       6.81033911      -0.50637258      -1.33723387       0.44135603
64
Lattice="10.862 0.0 0.0 0.0 10.862 0.0 0.0 0.0 10.862" Properties=species:S:1:pos:R:3:forces:R:3 pbc="T T T"
Si      -0.06152304      -0.01765684      -0.04864843      -0.30467028       0.08727950       0.31404957
Si      -0.09684170       0.08986154       5.42975119       0.38063326      -0.43289868       0.09296811
Si       0.02060230       2.83254913       2.56670415      -0.25940570      -0.41729426       1.06470958
Si       0.06128936       2.64929945       8.16014309       0.69626419       0.62004434      -0.60647776
Si       0.08461184       5.42876830       0.01171117      -0.32326843       0.03099645      -0.70273712
Si      -0.05061649       5.33982589       5.38469779       0.51564603       0.57588656       0.39119487
Si      -0.03199056       8.09434763       2.64425232       0.13298504       0.79199187       1.95526545
Si      -0.13904925       8.18025098       8.09589611       1.32797140      -0.27055838       0.04756342
Si       1.25730148       1.26076362       1.39191633       0.68319380       0.32259272      -0.38274979
Si       1.42243668       1.19731220       6.81793306      -0.92170853       0.65706755       0.21189269
Si       1.38963626       4.10442838       4.02976042      -0.11082337      -0.43958520      -0.07670462
Si       1.44992267       4.07048669       9.48102171       0.45016447      -0.11295510       0.18261466
Si       1.31605068       6.90617389       1.30604298       1.07568100      -1.05992221      -0.16912983
Si       1.35082842       6.78253291       6.74552501      -0.89628397      -0.48286928       0.74775920
Si       1.31314486       9.54165404       4.21957157       0.04622908      -0.80181169      -0.93743118
Si       1.33257461       9.48591972       9.52606067       0.34499883      -0.08510899      -0.84567622
Si       2.66837682      -0.01107806       2.79450304      -0.20485745       0.35943765       0.48058346
Si       2.82915160      -0.11112563       8.04506229      -0.38921500      -0.22615879       1.36343924
Si       2.76399830       2.57364045       0.05376975      -0.88510653       0.07636690      -0.67855182
Si       2.61409292       2.65487079       5.50446599       1.10316097       0.56066486      -0.98888773
Si       2.69412182       5.44417884       2.60894768      -0.00592265       0.34172545       0.49666810
Si       2.85617028       5.50822283       8.07467610      -1.15832299      -0.46788551       0.19797161
Si       2.79733170       8.19686142       0.03872476      -0.46743190      -0.13455645      -0.65932324
Si       2.73784096       8.08704043       5.51176615      -0.15589676       0.30537790      -1.16613939
Si       4.15875969       1.29928714       4.13893100      -1.35004757       0.49004081      -0.00305466
Si       4.12589334       1.33199955       9.43163440      -0.52189211      -0.27770600       0.56299613
Si       4.02661107       3.95695251       1.40647293       0.67874421       0.69862884      -0.51234400
Si       4.11536499       4.12065819       6.68835688      -0.55512891      -0.49626440       0.09971183
Si       4.06593259       6.79420915       4.01904516      -0.00099721       0.06044874      -0.11029829
Si       4.14007984       6.80683209       9.48273477      -0.91519835      -0.21081210       1.05408539
Si       4.01584443       9.59167944       1.42653319       0.79385421       0.33609630      -0.69017034
Si       4.16527376       9.39354232       6.75856938      -0.25510718      -0.74739274       0.98064000
Si       5.50830125       0.13400788       0.06136630      -0.75896153      -1.39265730      -0.78352032
Si       5.38671543      -0.05750971       5.52429135       0.69000488       0.54754881      -0.28790144
Si       5.45077646       2.67986298       2.77370166      -0.23530025      -0.23902570      -0.57125221
Si       5.34402676       2.75341100       8.12771744       1.12203008       0.23076251      -0.16436178
Si       5.40740764       5.41846427      -0.02579268       0.29540684      -0.13745259       1.16294122
Si       5.48179678       5.44439295       5.36157184      -0.58678624      -0.30767102      -0.59040278
Si       5.41196513       8.25305121       2.70730373      -0.01332564      -0.09184776       0.60835081
Si       5.49057948       8.10881591       8.27986388       0.11406744       0.60657929      -1.44266408
Si       6.86241295       1.37946542       1.38455309       0.32557029       0.47098636       0.45161808
Si       6.74322510       1.29069822       6.84596252       0.28250796       0.89607087      -0.30060329
Si       6.79028816       4.00796885       4.03962714       0.22374880       1.10660342      -0.00272549
Si       6.80016695       4.06685251       9.52367102      -0.59580184       0.03625344      -0.51909567
Si       6.77486889       6.89714777       1.41021411      -0.06640492      -1.08203370      -0.32422788
Si       6.68150187       6.74997941       6.78717067       0.92854257       0.09139473       0.72932438
Si       6.75981242       9.59505348       4.14576829      -0.21803850      -0.54319134      -0.63558499
Si       6.81607174       9.52343066       9.48526672       0.54436640       1.03279631       0.70319694
Si       8.15348773       0.02329745       2.81508967       0.62717641      -0.18029571      -0.63712235
Si       8.25684694       0.06955034       8.13772233      -0.91693769      -0.32977128       0.37549824
Si       8.17037187       2.76513444      -0.01760319      -0.44143438       0.29436983       0.79700801
Si       8.10634418       2.67606148       5.32592795      -0.62480877      -0.21016095       1.68353088
Si       8.17738109       5.45119769       2.78026055      -1.02206316       0.32208204      -0.39087655
Si       8.13242055       5.39829616       8.13502627       0.33090565      -0.33230508      -0.60326195
Si       8.13358411       8.20833997       0.04137129      -0.00200011      -1.22309975      -1.08971723
Si       7.99401944       8.13364851       5.43753449       0.77823710      -0.04521411       0.02101694
Si       9.51589089       1.48579877       4.06989137       0.68554119      -0.38087452      -1.29362478
Si       9.49306944       1.51894415       9.50151410       0.43844669      -1.47410290       0.22607691
Si       9.45207101       4.19043264       1.34087729       0.46202668      -0.24989540      -0.44222108
Si       9.51731364       3.92525744       6.72213442      -0.34235559       0.58896135       0.63329788
Si       9.47964987       6.79264088       4.12020564       0.10777562       0.30107019       0.03436592
Si       9.54110259       6.71935846       9.46495616      -0.61810866       0.53697776       0.65326274
Si       9.48306963       9.42032149       1.37193047      -0.02187943       1.60073270       0.22959517
Si       9.42623758       9.52833799       6.71037134      -0.04038948      -0.09445719       0.05564246
64
Lattice="10.862 0.0 0.0 0.0 10.862 0.0 0.0 0.0 10.862" Properties=species:S:1:pos:R:3:forces:R:3 pbc="T T T"
Si      -0.06473991      -0.00291026       0.02062881       0.09894664       0.36862830      -0.43140303
Si      -0.00204067       0.12317293       5.52381906      -0.75800565      -1.22153921      -1.12755098
Si       0.02957963       2.69355693       2.69257435       0.87435341      -0.60053770       0.67331563
Si       0.11271702       2.75343835       8.16258715      -1.22793961      -0.63052916      -0.90230157
Si       0.16177408       5.30822184      -0.07135325      -1.22739288      -0.05266625       0.39602102
Si      -0.06952166       5.40861538       5.42269070       0.74208460       0.31956178      -0.46562897
Si      -0.01549452       8.08098072       2.72290573      -0.64669226       0.48026841       0.26448259
Si      -0.01108139       8.17792953       8.20147670      -0.65061825      -0.22048277      -1.20941548
Si       1.43887186       1.29356144       1.31453009      -0.29701362       0.79290304       0.00367983
Si       1.36604062       1.34320144       6.82044846       1.11259065       0.60759007       0.03099502
Si       1.43553736       4.14561287       4.06480761      -1.01933060      -1.10894539       0.37643278
Si       1.46296160       4.00301792       9.40511632       1.02212503       1.41848655       0.26099925
Si       1.28439937       6.73198082       1.35652628       0.66889512      -0.09540192       0.28740998
Si       1.30253105       6.86068699       6.68460099      -0.99048075      -0.28755110       0.86559203
Si       1.31288286       9.55882352       4.05180091      -0.80029532      -0.92011208       1.18946178
Si       1.28058723       9.39326058       9.61177828      -0.12569316       0.70321226       0.22228210
Si       2.66824897      -0.11956304       2.73224629       0.78155653       1.47705845      -0.27376674
Si       2.56031407      -0.15343435       8.21269652       0.53057725       0.69159152      -0.24953344
Si       2.83024822       2.79843170      -0.02581385      -0.29105494      -1.13956459      -0.01109367
Si       2.80982092       2.70760790       5.36932175      -0.68056477       0.14379830       0.54515457
Si       2.73032067       5.47720521       2.77185282       0.32968852       0.77102186      -0.56568521
Si       2.71670848       5.60236748       8.01135079       0.16689475      -0.93199376       1.06939654
Si       2.64351407       8.09208354       0.04655945       1.07897557      -0.35815267       0.07132920
Si       2.66653920       8.10099081       5.40187303      -0.83938425       2.30432305       0.45768576
Si       4.11056572       1.35961186       4.00853867      -0.56982683      -0.73762460      -0.09951230
Si       4.02431704       1.27018197       9.42374976       0.37459219       0.53593865       0.36081498
Si       4.09136834       4.24190502       1.30661672      -0.09569954      -1.11834602       0.98866124
Si       4.05728906       4.13994877       6.77035834       0.54418057       0.23249491      -0.17622993
Si       3.99817738       6.92638460       4.16889058       1.85137576      -1.55072539      -1.51962128
Si       4.16611631       6.78266065       9.55261992      -0.78190317       0.17852305      -0.50895369
Si       4.02323159       9.45795334       1.40714970       0.37011560      -0.07671788      -0.53249267
Si       3.98055032       9.47756238       6.81090882       0.06473447      -0.28775326       0.19082158
Si       5.38066768       0.00656772       0.04561846       0.37987615      -0.47628677      -0.35919206
Si       5.32024834       0.05334339       5.54426102       0.04992510       0.46303638      -0.12259473
Si       5.41592602       2.73317865       2.68293290      -0.45857100       0.93859500       0.02470246
Si       5.41688960       2.78323781       8.14931284      -1.00337332       0.03830500       0.57673045
Si       5.52724971       5.43500190       0.03639030       0.20512598      -0.11813455      -1.13292500
Si       5.48898592       5.57630989       5.46456195      -0.71588235      -0.24757186      -0.01640425
Si       5.45473773       8.22493539       2.79325778      -0.20928539      -0.45532249      -0.19713261
Si       5.45293408       8.13836914       8.10734750       0.42047006      -0.30975335      -0.24293644
Si       6.75455467       1.42909663       1.38929293       0.39247367      -1.04574353      -0.46361542
Si       6.68190235       1.51638373       6.79309634       1.37644117      -1.25082163      -0.01920849
Si       6.66248350       4.14248839       4.08069309       1.10381531      -0.53898361       0.09298779
Si       6.87852618       3.98200747       9.51505225      -0.42324673       0.69131741       0.15805951
Si       6.78581920       6.81579757       1.33137327       0.14367882      -0.13923938       1.37947650
Si       7.02554712       6.81486759       6.71658886      -2.01688110      -0.62678694       1.62449963
Si       6.69021154       9.62159753       4.21943277       0.74730220      -0.50425861      -0.52335525
Si       6.82748921       9.39678432       9.51702264      -0.39040508       0.99701534       0.35520335
Si       8.11418230       0.02422531       2.77007579      -0.95801950      -0.34474666      -0.28411753
Si       8.15013825      -0.00462003       8.17592723      -1.96868279       0.36908812      -0.47634787
Si       8.19701298       2.57237688      -0.04814004       0.13189246       0.70000942       0.49789826
Si       8.20543256       2.79333112       5.49070548      -1.61081665      -1.11453223      -1.78841504
Si       8.13142962       5.29412773       2.62554654      -0.43096953       0.54928110       0.11133386
Si       8.20504520       5.35095988       8.10742582       0.23770464       0.24863816       0.41837808
Si       8.16469788       8.04687398       0.01608011       0.84783884       0.68160109      -0.30347249
Si       8.15547548       8.17428291       5.42761628       0.73957949       0.97183314      -1.25320507
Si       9.46618358       1.31664796       4.03523042       0.67984211       1.23352668       0.87732130
Si       9.49115466       1.36460427       9.33922603       1.17881552      -0.17573363       1.17567342
Si       9.58032700       3.95521686       1.35129256      -0.32464720       0.53791869      -1.16220034
Si       9.54782637       4.01601107       6.73632791       0.84729925       0.50769616       1.41486140
Si       9.39884732       6.68538624       4.04296492       0.36916479       0.60504593      -0.24097907
Si       9.59988460       6.70302710       9.50497767      -0.40917620      -0.21940179       0.13802002
Si       9.46129383       9.54343663       1.41750379      -0.06222338      -0.85811727      -0.20975843
Si       9.40056048       9.59509618       6.80314727       1.52114369      -0.79422976      -0.23063288
64
Lattice="10.862 0.0 0.0 0.0 10.862 0.0 0.0 0.0 10.862" Properties=species:S:1:pos:R:3:forces:R:3 pbc="T T T"
Si      -0.08905841       0.04847004      -0.02467029       0.13341870       0.73356722      -0.39222096
Si       0.12640281      -0.10286596       5.58027221      -0.70353228       0.26198359      -0.30181265
Si       0.02376170       2.74393359       2.93134345      -0.27655494      -0.26852478      -1.04474623
Si      -0.01990288       2.68003285       8.20998110       0.86363745       0.55842499      -1.36064082
Si      -0.15811334       5.34533399       0.12127921       1.42865113      -0.15056229       0.13109239
Si      -0.13785966       5.28520570       5.39561239       1.11332209       1.41016092       0.04005491
Si       0.02776762       8.09495317       2.56697409      -0.20135888       0.54575145       0.46191137
Si       0.07200038       8.07614822       8.14676559      -0.42313153       0.31423648       1.24599309
Si       1.27808343       1.34679254       1.40379577       0.02804295       0.91203867      -0.55929383
Si       1.48553391       1.24911849       6.90810417      -0.74948033       1.01812346      -0.36994266
Si       1.40746646       4.16447703       4.08718705      -0.08251051      -0.87324625       0.79995722
Si       1.27884015       4.10296854       9.51765840       0.14765163       0.05775961       0.35623765
Si       1.41649984       6.67981263       1.35441221      -0.32595113       0.20703807      -0.53450708
Si       1.28538454       6.79210430       6.70459251      -0.04900310      -0.96136284      -0.48676122
Si       1.29457391       9.45236560       4.06029500       0.36186980       0.30298040      -0.92744539
Si       1.30490562       9.56921661       9.55861073       0.19976524      -1.21158058       0.14611144
Si       2.68578395      -0.00693127       2.62436304      -0.32985114      -0.80374006       0.41781061
Si       2.75223628      -0.11044579       8.23453577       0.54579979       0.28406423      -0.01093369
Si       2.73489043       2.74550705      -0.03921235      -1.11174058      -0.49870891       0.25347950
Si       2.69434323       2.64596072       5.37802079       0.34723563       0.79640412       1.01879376
Si       2.75629898       5.39444534       2.73625782       0.47843670       0.37705832      -0.40125877
Si       2.61275104       5.50035756       8.12721800       0.11638712      -0.63199167      -0.16232270
Si       2.74974845       8.13216216       0.02793378      -0.39071110       0.35533295      -0.43224293
Si       2.64940894       8.09503207       5.34263545       0.36367998       0.40169916       0.34686933
Si       3.98107929       1.38661053       3.91047694       0.52158067       0.15329198       0.27034937
Si       4.06955137       1.30571876       9.56402110       0.24672318      -0.19460240       0.07445914
Si       4.05468890       4.07903100       1.28500533       0.62908682       0.40657580       0.13543666
Si       4.10980694       4.05707580       6.91978438      -1.08680286      -0.03183289      -1.02395660
Si       4.07756364       6.86158188       3.99584566       0.34903683      -1.39206054       1.11980961
Si       4.00249372       6.88327338       9.34706241       0.92976718      -0.04577784       0.59711674
Si       4.13485157       9.54452314       1.31091242      -0.08878314      -0.51762919       0.47161885
Si       4.01053964       9.55804838       6.66448601       0.57486457      -0.59440684       0.08539505
Si       5.54051481       0.01699881       0.04371316       0.22480724      -0.17239204      -0.76224577
Si       5.36203165       0.08807345       5.27726391       0.19373792      -0.38875443       0.43738261
Si       5.41985431       2.72759863       2.63703466       0.26806523       0.58944125       0.53728041
Si       5.38102038       2.64915330       8.19578047       0.62233969       0.33310551       0.62958252
Si       5.41918062       5.49373237      -0.08536697      -0.47878291       0.84646397       0.47972761
Si       5.48051919       5.36963852       5.52207007      -1.04824543       0.40547839      -0.94862900
Si       5.45986228       8.13138670       2.71910878       0.48675237       0.98191166      -0.45063160
Si       5.50566802       8.18447270       7.99876224      -0.70259747      -0.24334581      -0.28333596
Si       6.88528484       1.42296543       1.38525224      -1.08946290      -1.29817511       0.75242424
Si       6.70640743       1.35566732       6.78512979      -1.18951912       0.00959993      -0.61697027
Si       6.82871823       4.10620398       4.11375518      -1.05315576      -1.06634868      -0.11175163
Si       6.75397041       4.09861008       9.55834884       0.81322374      -0.56382875      -0.68496554
Si       6.87955750       6.85747345       1.35459849      -1.26360031      -0.41088636      -0.56777193
Si       6.87215277       6.76079558       6.66140837       0.19056207       0.34091375       1.04681970
Si       6.85743725       9.54313675       4.05632940      -0.26598895      -0.11487471       0.05009890
Si       6.85930869       9.47058269       9.38167938      -0.51337541       0.62225992       0.77418265
Si       8.24316178       0.05538369       2.72018925       0.01145600      -0.04268656       0.43375965
Si       8.06856569       0.06917854       8.01428645       1.43298534      -0.73821197       1.04575823
Si       8.13433443       2.72954198       0.15237367       0.80729054       1.48797695      -1.53569711
Si       8.05452990       2.63569743       5.48629833       0.84917283       0.86747959      -0.26253111
Si       8.04177948       5.45408684       2.74880562       0.66030823       1.11618201       0.73053072
Si       8.23931424       5.44270238       8.10925190      -1.18397807       0.41224128       1.11125781
Si       8.18780371       8.21383420       0.00390469      -0.38666375      -0.70764443      -1.05312221
Si       8.24031164       8.16588508       5.42582470      -0.17137217       0.03988107      -0.57732031
Si       9.57531030       1.32838283       4.26450269       0.00242842      -0.38511538      -0.15205786
Si       9.43050873       1.48649262       9.46295963      -0.78700867      -1.24285859       0.77723181
Si       9.41336720       4.11194153       1.59927177       0.72620710      -1.31017394      -0.65035645
Si       9.45705263       4.06421356       6.81225753       0.12756816      -1.59913478      -0.00502107
Si       9.58671015       6.80628191       4.04406858      -0.80631047      -0.19905668      -0.38928433
Si       9.56015995       6.73408949       9.61131858      -0.41409254       0.72673414      -0.95284846
Si       9.46839332       9.54875724       1.25886736       0.69077825      -0.01655157       1.24686698
Si       9.55088554       9.41302265       6.86539074      -0.31307519       0.79990600      -0.01277441
64
Lattice="10.862 0.0 0.0 0.0 10.862 0.0 0.0 0.0 10.862" Properties=species:S:1:pos:R:3:forces:R:3 pbc="T T T"
Si       0.03563289       0.02219507       0.04764225      -0.88607938      -0.09320273      -0.03935959
Si      -0.02897981      -0.03584112       5.35316507      -0.73962412      -0.47270298      -1.27905051
Si       0.07429151       2.72539006       2.77152240      -1.07365916       0.83910372       0.56635902
Si       0.04163175       2.70590692       8.09835181       0.74646127      -0.32741698      -0.10250225
Si      -0.03373997       5.48325022       0.07887497       0.37548838      -0.80603257      -0.63416587
Si       0.10965658       5.34014239       5.45671674      -1.08530448       0.53680620       0.13451600
Si      -0.05506904       8.10158074       2.65502298       0.50445285       0.41018748       0.64203689
Si       0.01451882       8.19634691       8.20535631      -0.07986234       0.25223464      -0.73896673
Si       1.25356617       1.32803437       1.48706948       0.92317630      -0.29756723      -0.68765090
Si       1.28117060       1.24005252       6.58126200       0.51930775       1.89817873       1.27190349
Si       1.44337960       3.98196434       4.21053317       0.14178197       0.78125767      -1.55861099
Si       1.38961456       4.05230829       9.55232019      -0.78232960       0.54113335      -0.36588296
Si       1.38468157       6.86024946       1.27100854      -0.06697320      -0.34363972       0.77473643
Si       1.29507235       6.80732618       6.79512002       0.35063745      -0.23327234       0.56039603
Si       1.42742930       9.46766168       4.02765969      -0.73557675      -0.21046405      -0.05413850
Si       1.36463587       9.60642285       9.48983548       0.72649628      -0.37687252      -0.09837450
Si       2.74722931      -0.00428808       2.66159177       0.29826391      -0.55095152       0.07830497
Si       2.66729164       0.07494911       7.95535585      -0.00066113      -0.70072175       1.22054940
Si       2.56387364       2.69264124       0.12431711       0.84468463      -0.58104244      -0.59670648
Si       2.79139475       2.65475136       5.44496287       0.27159466      -0.82995794      -0.11498982
Si       2.69303955       5.49875617       2.75291156      -0.77417779      -0.65109630      -0.13309480
Si       2.70622289       5.38414739       8.07686568      -0.61420719       0.33279980       0.63840112
Si       2.78448513       8.13533203      -0.06732103      -0.51626454       0.97910194      -0.01347964
Si       2.68816080       8.14086230       5.52546596       0.14778100       0.20889698      -0.83693384
Si       4.13692880       1.20896897       4.08688801       0.11322671       1.04137492      -0.16919755
Si       3.94737769       1.34341845       9.45699474       0.17402948       0.48496207       0.29305196
Si       3.94176724       4.01047646       1.45163472       1.30280765       0.34100697      -0.01702456
Si       4.04610432       4.10672146       6.73934797       0.99463197      -0.29611981      -0.01242315
Si       3.99902681       6.89204216       4.00984309       0.59136235      -0.22533198       0.85700987
Si       4.00875134       6.74889428       9.45491915       0.53098351      -0.59758120       0.07431534
Si       4.17835692       9.51387589       1.26131454      -1.05353909       0.18527854       0.16070947
Si       4.07536830       9.47722667       6.82928471       0.15965850      -0.05329973      -0.10406321
Si       5.43395683       0.01470737      -0.08973665      -0.47336004       0.41770753      -0.32338756
Si       5.47045730      -0.06929835       5.48242909       0.25889752      -0.14621982      -0.03553791
Si       5.53377950       2.67317254       2.76542739      -1.34550793       0.06404266      -0.27769455
Si       5.40394873       2.65442295       8.08262482      -0.18821013       0.65862791       0.64533119
Si       5.36897678       5.42057225       0.02308784      -0.51750158      -0.06416224       0.64540627
Si       5.43486903       5.53798212       5.40548524      -0.60937431      -0.18080898      -0.19182953
Si       5.38889141       8.16168225       2.64470810       1.00371030       0.01785649       0.50570945
Si       5.38423867       8.08330317       8.16707282       0.35141970       0.67305095       0.16584363
Si       6.72340789       1.38055780       1.24692786       1.49900656       0.03308282       0.32849280
Si       6.84065884       1.31862258       6.81733779      -0.34508918      -0.32082846       0.21142151
Si       6.75962922       4.11111263       4.10543249       0.10691086       0.53819034      -0.32343036
Si       6.68667209       4.06802406       9.57508238       0.86463722      -0.43423850      -0.74320588
Si       6.82212674       6.81159516       1.31612291      -0.38473487      -0.25109156       0.06241531
Si       6.78749585       6.83018960       6.81574730       0.92400742      -0.24936920      -0.00677732
Si       6.82452196       9.50065763       4.05075351      -0.23662583      -0.53903892       0.12631627
Si       6.77555333       9.49876391       9.51245309      -0.26222885      -0.68248611      -0.30207845
Si       8.13483445      -0.03815309       2.67492719      -0.82721160       1.66115919       0.36979262
Si       8.15757774      -0.03946424       8.25095238       0.58331498       1.02416962      -0.37556767
Si       8.28105050       2.76634446      -0.04951702      -1.89887638       0.38845824       0.96578671
Si       8.03122605       2.76557175       5.46494571       1.17687299      -0.30342792      -0.11225212
Si       8.16108703       5.49490286       2.75984468      -0.26351127      -0.08621134       0.35820912
Si       8.17806071       5.41700855       8.25272222      -0.84010571      -0.60785050      -1.25393020
Si       8.16851044       8.12222876      -0.09564381       0.41790631       0.15703366       0.55183654
Si       8.25211059       8.20889761       5.46774506      -1.36666458      -0.44014374      -0.09326604
Si       9.46019700       1.44003854       4.05262611      -0.34662460      -0.53001060       0.17616467
Si       9.59119128       1.48300101       9.54759284       0.16481795      -1.68620190      -0.73828387
Si       9.48046026       4.08865636       1.44846934       0.65306863       0.13863788      -0.06067510
Si       9.55246154       4.02226388       6.78046134      -0.86542789       0.60147060       0.30148034
Si       9.54525816       6.78987582       4.20109138       0.48397750      -0.51924831      -0.86332788
Si       9.58862016       6.74039379       9.42705135      -0.35583303       0.60817162       1.01891115
Si       9.43990126       9.54876291       1.40219427       0.77886271      -1.06095815      -1.35158385
Si       9.50139699       9.56783593       6.78374361       0.55090921      -0.06441246       0.90403657
64
Lattice="10.862 0.0 0.0 0.0 10.862 0.0 0.0 0.0 10.862" Properties=species:S:1:pos:R:3:forces:R:3 pbc="T T T"
Si      -0.00363836       0.00338732      -0.03646200      -0.08329065       0.33672184      -0.16399549
Si      -0.04970212      -0.07117640       5.37260762       0.29625410       0.85386363       1.14826106
Si      -0.09240900       2.77827063       2.70475686       0.80037093       0.27184419      -1.07139342
Si      -0.00928579       2.63720008       7.97498488       0.01778302      -0.27114463       0.69240752
Si       0.04066092       5.37959091      -0.05925091       0.10328975       0.40636394      -0.71364109
Si      -0.04637291       5.50029856       5.29685527      -0.11216068      -0.56282581       2.15985262
Si       0.11367594       8.16926436       2.69552324       0.29125538       0.23729849      -0.10084941
Si      -0.00969368       8.24631616       8.22765229      -0.00463787       0.25347931      -0.13328781
Si       1.35452271       1.29277297       1.35509274      -0.78118785       0.61419160       0.79638652
Si       1.52326928       1.20797269       6.89322572      -0.81678574      -0.19724496      -1.08043793
Si       1.33148175       4.12448314       4.09564822      -0.60391936      -1.47758787       0.13681980
Si       1.36115012       3.99014298       9.33209664      -0.38590922      -0.39481925       1.31436779
Si       1.36459200       6.71689234       1.35797606       0.43726577      -0.28609759       0.20326069
Si       1.23165511       6.77773428       6.98605118      -0.11019188       0.10862515      -1.80461813
Si       1.38778541       9.52566956       4.14232255       0.25634557      -0.70009465      -0.18208351
Si       1.42314609       9.51238345       9.54516704       0.08130767      -0.21342637       0.12545765
Si       2.70578362      -0.01226897       2.75589490       0.08022735      -0.16425720      -0.45086101
Si       2.94791553      -0.09962010       8.27394471      -0.76827087       0.83676581       0.22679451
Si       2.66660360       2.66598886       0.06151368      -0.06262067       0.69375516      -0.67699990
Si       2.66828559       2.60470458       5.34470882      -0.27702952       0.84242973       0.88297330
Si       2.70101018       5.42456219       2.90896952       0.91204956       1.13186861      -1.21966735
Si       2.65724505       5.40682258       8.10387631       0.89564467       0.03654920       0.05201720
Si       2.74151948       8.03031300      -0.03817331      -0.15414280       0.53919689       0.29299554
Si       2.65191481       8.19948334       5.65186010       0.06478676       0.26118934       0.43317004
Si       4.06537277       1.34355609       4.06768443       0.65266140       0.13990954      -0.89890604
Si       4.13683302       1.39430313       9.63281784       0.04112350       0.14044525      -0.18825938
Si       3.98819947       4.10559760       1.37537499       0.61117338      -0.18168909       0.36009248
Si       3.99008096       4.12198876       6.65888774       0.05341508      -0.70194299       0.33281848
Si       4.01620830       6.96114472       4.25360613       0.35638914      -0.80819388      -0.88809960
Si       4.09231551       6.76808711       9.41855949       0.54656770      -0.53683460       0.10106802
Si       4.01529494       9.52117430       1.29847781      -0.24284478      -0.98969413       1.20310958
Si       4.26684080       9.52276893       6.90131282      -0.63361534      -1.22661073      -0.36373228
Si       5.40566538      -0.02040566       0.12463854       0.89919503       0.31371200      -0.78363339
Si       5.36036061      -0.01790794       5.41596406       0.75053723       0.35797668      -0.12825604
Si       5.49845258       2.67161750       2.62309206      -1.03678538       0.01243700       0.02881357
Si       5.33940577       2.82339907       8.18212791      -0.03450987      -0.26386858      -0.82579741
Si       5.47896452       5.37842381       0.00526537      -1.33559082      -0.09600466      -0.72743725
Si       5.43508673       5.40798169       5.35010838      -0.66294750       0.05386026      -0.10371286
Si       5.42855605       8.15742121       2.73012810       0.01013574       0.38075976      -0.22835807
Si       5.62880268       8.03827961       8.11306838      -0.37153573       0.45935894       0.58243198
Si       6.89899582       1.35795574       1.30151254      -0.08583119      -0.42661793       0.32444163
Si       6.66531031       1.34121935       6.81767885      -0.24482853       0.75438476      -0.22174688
Si       6.73494988       4.06305233       3.97837911       0.47159646       0.08355702       0.29676433
Si       6.80349928       4.19675255       9.35861826      -0.60285728      -0.14043186       0.27845312
Si       6.75992159       6.74551924       1.25562361       0.15403566       1.23831519       1.13564849
Si       6.83928468       6.67597376       6.64383059      -0.68539792      -0.24859750       1.00353704
Si       6.86073075       9.57314856       4.11971176      -0.44383574      -1.19375509       0.05405017
Si       6.84526475       9.44964653       9.68273295      -0.84445624       0.36326040      -1.04540743
Si       8.24612528      -0.01408691       2.78040401      -0.53926627       0.91946503      -0.36113750
Si       7.97529228       0.00806133       8.17362959       0.91934881      -0.87215620      -0.26937811
Si       8.01624388       2.72539604      -0.24640729       1.11720190       0.00634065       0.99340313
Si       8.03797036       2.74607803       5.45286370       0.02745288      -0.64730081      -0.31102856
Si       8.06951916       5.51200121       2.70055344       0.98938094      -0.75561247      -0.64444189
Si       8.16930045       5.64116416       8.19686809       0.64438742      -1.04933922      -0.51120933
Si       8.23982358       8.20597730       0.10686273      -0.05807050      -0.10769493       0.87565221
Si       8.16225890       8.01247857       5.48883092       0.97576865       1.52912184      -1.54505385
Si       9.53633354       1.41313935       4.05767467      -0.53885179       0.16584090       1.00697051
Si       9.43850111       1.31839493       9.40950056       0.61986520       0.27040683      -0.04920601
Si       9.44318962       4.10088326       1.15693953      -0.78359057      -0.45290777       1.18775014
Si       9.38007433       4.03227417       6.82224612       0.71868162       1.32292311      -0.56648755
Si       9.58739861       6.84313852       3.94220138      -1.25074881       0.08350290       0.27446846
Si       9.52212180       6.94469694       9.56647145       0.53480760      -0.83533946       0.28795434
Si       9.62215624       9.59539871       1.46757893      -0.13667882      -0.76366787      -0.65851866
Si       9.47417823       9.45911796       6.80373847      -0.63791565       0.54603715       0.12545120
64
Lattice="10.862 0.0 0.0 0.0 10.862 0.0 0.0 0.0 10.862" Properties=species:S:1:pos:R:3:forces:R:3 pbc="T T T"
Si      -0.07043137       0.07552565       0.05226228       0.32958709      -0.88985614      -0.52816747
Si      -0.06610439       0.08406731       5.39316658       0.43848184      -1.49038798       0.68367206
Si       0.13848388       2.59296806       2.63021547      -0.43130418      -0.05197990       1.42311784
Si      -0.03873149       2.72158967       8.13722527      -0.19701205       0.58923793      -1.02264904
Si      -0.15149544       5.36392801       0.02981892       1.03016069       0.38093584      -0.64994854
Si       0.07448333       5.45506116       5.43732123       0.53505453       0.14829915      -0.22254373
Si       0.03066106       8.23213643       2.77941513       0.73960451      -0.18149928      -0.09680327
Si      -0.04097832       8.14974502       8.17746713       0.20943947      -0.84312994      -0.76465716
Si       1.46987159       1.32327141       1.29080824       0.65058822      -0.45518278       0.29267047
Si       1.27895620       1.36246291       6.75712822       0.35380717      -0.07005270       0.24418658
Si       1.39835932       4.08200630       3.98983061      -0.83464593      -0.03064359       0.05940338
Si       1.24842919       4.12204321       9.42526437       1.02328315       0.12534258       0.71472223
Si       1.22870749       6.85073073       1.23588345       0.14910019       0.01649004       0.30801800
Si       1.46130527       6.86161209       6.79862106      -1.56083729       0.19073222      -0.26577534
Si       1.45331020       9.53291849       4.17095813      -0.53771763       0.31680428      -0.00537080
Si       1.27255379       9.50682286       9.39260626      -0.51217169      -0.14196513       2.52806804
Si       2.83629803      -0.00575761       2.83668015      -0.43204253       0.01946753      -1.23902938
Si       2.55564123      -0.14503223       8.09369362       1.68972408       1.51520438      -0.82470910
Si       2.76986137       2.77870958      -0.03916912      -0.15247664       0.13917101      -0.32746600
Si       2.62044326       2.68150476       5.35303309       0.49688737       0.29031232       0.59262940
Si       2.57167715       5.50690343       2.61573914       1.10471775       0.02712113      -0.14540199
Si       2.68036295       5.50397285       8.08064802       0.78793213      -1.34570522       0.56407450
Si       2.72470816       8.14954483      -0.07908818      -0.68731827       0.48163544       0.22579136
Si       2.80815745       8.17883913       5.51318937       0.31900410      -0.45108804      -1.09828766
Si       4.12447520       1.40163377       4.14015081       0.02132098      -0.92111422       0.77693880
Si       4.01572330       1.26774532       9.45169281      -0.92477394      -0.15360581       0.05941195
Si       4.14103104       4.17404360       1.36669267      -0.81387087      -0.59415825       0.21273380
Si       4.03141748       4.08077543       6.64719795      -0.05519402       0.23594419       0.29066599
Si       4.07145799       6.80354754       3.94992806      -0.77323886       0.03157597       0.66797455
Si       4.06625338       6.78440540       9.48571292       0.02657813      -0.20242005       0.26595582
Si       4.08709153       9.47751470       1.35059261      -0.09044420      -0.41543075       0.43501391
Si       4.15091549       9.34907947       6.94629722      -0.33355135       1.37784981      -0.41164950
Si       5.36588046      -0.06940059      -0.04529857       0.28867175       0.85935695       0.51736069
Si       5.45661392      -0.09093762       5.53339489      -0.13267023      -0.08404758      -0.49693238
Si       5.40566003       2.70211933       2.79502274       0.13751264       1.00965847      -0.88005908
Si       5.25914229       2.65676874       8.11070995       0.81464820       0.56465066      -0.16472415
Si       5.45791395       5.56548483       0.05859463      -0.15335263      -0.84991964      -0.55003829
Si       5.47178919       5.50387151       5.31353552      -0.64822959      -0.34003714       0.50913283
Si       5.50927536       8.11770297       2.72772378      -0.25418207       0.12754673      -0.73537842
Si       5.51743088       8.12712926       8.29529585       0.60405731       0.34430668       0.29535023
Si       6.66829043       1.35516550       1.39858798       0.65430917      -0.27271051      -0.75373028
Si       6.76109837       1.34870186       6.81513837       0.13939159       0.30645523       0.22709811
Si       6.80429569       4.17521335       3.94194113       0.05388557      -0.40706298       0.75358713
Si       6.64894651       4.07533279       9.52012177       0.20689807      -0.15402394      -0.25956156
Si       6.87721525       6.69834579       1.43587873       0.83965953       0.50977421       0.32299855
Si       6.73176709       6.77952200       6.84903604       0.28633851      -0.11358371      -0.59023470
Si       6.84412220       9.38695777       4.11051360      -0.23725709       1.24855509      -0.09406193
Si       6.92255246       9.58707840       9.63791614       0.15043591      -0.76405493      -0.65356316
Si       8.13242913      -0.01092640       2.68818911      -0.58137505       0.23252230       0.79018795
Si       8.24064899       0.08851791       8.16831210      -1.05057494      -0.87855136      -0.40231262
Si       8.10092932       2.75171673      -0.01293013      -0.47835214      -0.35392987       0.32323864
Si       7.99591892       2.82909456       5.44100642       0.53416309      -0.85178744      -0.61913492
Si       8.39710907       5.41464075       2.83374385      -0.51925698      -0.40600917      -1.44682466
Si       8.07526518       5.36497969       8.11032508       0.29651736       0.09352855       0.28892601
Si       8.24806514       8.06116314       0.06407225      -0.59149949       0.35639360      -0.08766515
Si       8.14577180       8.03469332       5.42648204      -0.00392955       0.69152189       1.25952526
Si       9.46880460       1.36477361       4.11768665      -0.73890048       1.00685858      -1.07112989
Si       9.48987315       1.42696103       9.46432453       0.19006334       0.18963037       1.23239117
Si       9.63373940       3.89272172       1.38199039      -1.43338851       0.70951906       0.16978216
Si       9.47358863       4.13736818       6.63879912       0.12787804      -0.49959571       1.30307268
Si       9.60661362       6.86533099       4.13853867       0.42399792      -0.42828252      -0.02927007
Si       9.50454634       6.74253568       9.46918301      -0.69597447      -0.34542503      -0.09860747
Si       9.48018667       9.46599112       1.45975743       0.43817027       0.59478314      -0.85136317
Si       9.49762068       9.48306249       6.83742340      -0.23632704       0.25605597      -0.95064916
64
Lattice="10.862 0.0 0.0 0.0 10.862 0.0 0.0 0.0 10.862" Properties=species:S:1:pos:R:3:forces:R:3 pbc="T T T"
Si      -0.03661864      -0.05160896       0.07951560      -0.10307922       0.50268307       0.31873075
Si       0.10869972      -0.09170297       5.32458098      -0.87551621       0.42237448       0.99413179
Si       0.00514620       2.73513189       2.78135087       0.31447621      -1.27243359       0.17566644
Si       0.01561184       2.60759743       8.20971509      -0.09558729       0.96243919      -0.41804291
Si       0.09568783       5.41873515       0.01973810      -0.31063449       0.61686266      -0.40323451
Si      -0.08550890       5.51671216       5.49238064      -0.12056544      -0.29979771       0.12911607
Si      -0.02266217       8.04554781       2.78799146      -0.51932209       0.47900896       0.06943303
Si       0.00141640       8.27510827       8.17185193       0.93813578      -0.48023229      -0.81668785
Si       1.36396196       1.27690067       1.37053513      -0.72044828       2.03226122      -0.62091174
Si       1.38794443       1.34208360       6.80038735      -0.31428842      -0.32399809      -0.25694839
Si       1.23024597       4.04085139       4.29085259       0.80834949       0.50175754      -0.70009546
Si       1.39240597       4.09062172       9.51656565       0.28709612       0.16965361      -0.98404566
Si       1.30223354       6.83197542       1.44754444       0.67103229      -0.76991179      -0.68752337
Si       1.36484822       6.85162435       6.71860994      -0.18872282       0.37221254       0.51024361
Si       1.35823631       9.42444092       3.96317093       0.80022236      -0.05866343       0.70953945
Si       1.30545438       9.67924583       9.52440726       0.53339004      -0.60935372      -0.59230628
Si       2.60960005       0.04419312       2.71038529       1.53475977      -0.97681782       0.22095748
Si       2.77284159       0.02984702       8.10758156      -0.07553632       0.04490187       0.75017768
Si       2.72307528       2.87166723       0.09449655      -0.56875454      -1.70095994      -0.51097021
Si       2.74169623       2.81791627       5.63841762       0.18106474      -0.29197473      -1.06535157
Si       2.59413072       5.41368791       2.80808347       0.35042152      -0.42738740       0.23329115
Si       2.76184455       5.51783766       8.02960804      -0.21051632      -0.89935441       0.72253046
Si       2.53335022       8.29238569       0.08108492       0.73163384      -0.61975917      -0.72954677
Si       2.79053384       8.13465045       5.38294367      -0.51118791       0.10168717      -0.40860031
Si       3.94824966       1.44504540       4.02982027      -0.34203835       0.20592766       0.60235625
Si       4.03911257       1.48353294       9.53478384       0.11844780      -0.15270712      -0.29718092
Si       4.03932524       4.03006496       1.48737386       0.71474768       0.97784622       0.35516893
Si       4.28132756       4.08771818       6.84973990      -0.78143400       0.96162063      -0.41306749
Si       4.10253752       6.82237180       3.95712100      -0.00393427      -0.29611392       0.32131766
Si       3.93913083       6.88371117       9.51027712       0.11616504      -0.07229967       0.71340507
Si       4.04841958       9.60260245       1.25192123       0.29887300       0.30007110       0.54737530
Si       4.05137630       9.42458973       6.82819339       0.81199228       0.69212635      -0.52339434
Si       5.49816963       0.13113683      -0.07184877      -0.65941354      -0.90737301      -0.11376371
Si       5.31076094       0.06010151       5.29545724      -0.00534935      -0.26373518       1.67082008
Si       5.48070159       2.63353775       2.75204963      -0.26873831       0.91164846       0.29129391
Si       5.52731877       2.69503926       8.15842898      -0.03010297      -0.23798223       0.52016409
Si       5.32077567       5.46593178       0.04247446      -0.37534132      -0.24444910      -0.22222778
Si       5.49058763       5.55301101       5.42007403      -0.81509655      -0.17746124       0.01008726
Si       5.44208097       8.14621631       2.54800938      -0.32386363      -0.04296567      -0.11600828
Si       5.44793669       8.08757040       8.18092970       0.00223374       0.50170101       0.09100934
Si       6.81432217       1.32941949       1.36590843       0.10458545       0.82202043      -0.36820049
Si       6.81921039       1.27351769       6.83969918      -0.52040109      -0.41320347      -0.45666467
Si       6.74384249       4.11122799       4.18682339       1.08555672      -0.86691834      -1.29205748
Si       6.74132228       4.10017962       9.57604141       0.03082383       0.31494887      -0.12047571
Si       6.83920202       6.70393157       1.29630311       0.22317832       0.63751268      -0.32742863
Si       6.83716749       6.80556916       6.79632909       0.45076657       0.18085809       0.19080615
Si       6.59788589       9.56022155       3.96919799       1.28501511      -0.38586072       0.11458031
Si       6.83492727       9.46667715       9.53435373      -0.02852451       0.35805633      -0.45090368
Si       8.10179299      -0.07361231       2.58866453       0.52132553      -0.59816665       0.82593163
Si       8.25284118      -0.03833810       8.16136803      -0.87652553      -0.44078508      -0.08211532
Si       8.12044945       2.77079854       0.02924725       0.81482475      -0.62848048      -0.07793404
Si       8.09757841       2.55137389       5.42140200       0.41943727       0.76461316      -0.40130884
Si       8.21266435       5.37435121       2.62741549      -0.27465302      -0.11496710       1.16464788
Si       8.15241091       5.34678700       8.15017482       0.22501133       0.30289511      -0.20414337
Si       8.25666173       8.03705806      -0.14687250      -0.14991697       0.02729970       0.96597425
Si       8.11847737       8.24201813       5.37452642      -1.35722296      -0.14563291      -0.13222035
Si       9.48358626       1.20709155       4.01464399      -0.01359963       0.56791510      -0.02938012
Si       9.54749193       1.25634695       9.54902188      -0.77123537       1.07687123       0.45793361
Si       9.66536779       4.03503922       1.34463000      -1.08333088       0.21130650      -0.21348715
Si       9.46571934       4.00518178       6.70461347       0.12445378      -0.55839161       0.95073619
Si       9.43785234       6.83422918       4.13498731      -0.38095773      -0.82029322      -0.65504814
Si       9.67494971       6.74912706       9.35931662      -0.83485074      -0.79249628       0.72539989
Si       9.57095570       9.37860555       1.38607299      -0.96556352      -0.17223347      -0.46346952
Si       9.46733439       9.44156679       6.74552718       0.97823326       1.04207958      -0.19808065
64
Lattice="10.862 0.0 0.0 0.0 10.862 0.0 0.0 0.0 10.862" Properties=species:S:1:pos:R:3:forces:R:3 pbc="T T T"
Si       0.00054505      -0.16968184      -0.00619677       0.06453323       1.10435047       0.48310754
Si       0.03395926       0.00450547       5.37745034      -0.12582622       0.60853548       0.57493920
Si      -0.01509600       2.69325614       2.70963582      -0.42740854       0.81960444       0.76366595
Si       0.15994207       2.69882409       8.16682358      -0.78995414      -0.02025946      -0.11328905
Si      -0.05041053       5.47054965      -0.08022882       0.38968909      -0.07566354       0.16345325
Si      -0.05054838       5.49628983       5.38613408      -0.23031955       0.58824451       0.07972127
Si       0.07841930       8.23641880       2.85607862      -0.73199571      -0.88670623      -0.53349145
Si       0.08236273       8.19932332       8.06897781      -0.50953661       0.38439306      -0.15545472
Si       1.32392811       1.37574076       1.40898086       0.00337170      -0.82343543      -1.02684212
Si       1.47485972       1.38705970       6.77580214      -0.49529136      -0.66319522      -0.08588288
Si       1.29433668       4.13525290       4.17361301       0.04278623      -0.79104848      -1.38351031
Si       1.42881628       4.12712521       9.46608082      -0.76632222      -0.31047553       0.97579224
Si       1.28321126       6.79234502       1.39249059      -0.47209973       0.20082267      -0.15169708
Si       1.33267399       6.82232127       6.70446392       0.70823824       0.35394872      -0.07556585
Si       1.45968768       9.63165777       4.03975996      -0.50381688      -0.71825945       0.77895982
Si       1.45326008       9.47511292       9.48131250      -0.83906842       0.85024878      -0.94394724
Si       2.73093372      -0.00940321       2.67022720       0.86594822       0.83182574      -0.63951616
Si       2.82726445      -0.02356976       8.11405673      -0.12121438      -0.36522403      -0.30884525
Si       2.66373107       2.69168528      -0.02528964       0.33877856      -0.52114809      -0.17939656
Si       2.71803465       2.76817144       5.38580853       0.17204098       0.01683087       0.40398275
Si       2.60089556       5.39547745       2.68274986       0.34035518      -0.31826625       0.03014666
Si       2.64906778       5.54152517       8.21697503      -0.17825591      -0.99950876      -2.40968556
Si       2.58308626       8.17217668       0.01631406       1.31357782      -0.97129347       0.58344399
Si       2.77605650       8.23986988       5.35595479      -0.01690824      -0.30791438       0.73459623
Si       4.03430203       1.26759064       4.17537041       0.41756714       0.58638416      -0.91166362
Si       4.12228446       1.30235404       9.48254553      -0.16670835       0.72561122       0.18704684
Si       3.97547091       3.96272054       1.38548370       0.52726261       0.13419609       0.50708169
Si       4.02587636       4.14723792       6.76106361       0.49609309      -0.01715256       0.62289329
Si       3.95152913       6.82413396       3.92690842       0.80882899       0.31831622       0.20435816
Si       3.92916145       6.73955329       9.51494144       1.07251660       1.04614386       1.55773321
Si       4.08909854       9.54330735       1.22055525      -0.53235058      -0.30594831       0.70545973
Si       4.27608654       9.47531687       6.78848171      -1.29937026      -0.85227437       0.71737394
Si       5.48389534      -0.02939246      -0.04139441      -0.36470855       0.66745027       0.07392190
Si       5.46551421      -0.02832257       5.46164571       0.68970663       0.85122527       0.04146598
Si       5.46213255       2.69478224       2.81836586      -0.55699780      -0.74393356      -0.87385140
Si       5.47237367       2.64389497       8.08906152      -0.85107450       1.57920168       0.81006963
Si       5.29897457       5.35604480       0.02381329       0.13122839       0.15785160       0.13211614
Si       5.36223765       5.60611469       5.42062135      -0.52780015      -0.91658325      -0.65385758
Si       5.40889193       8.23096663       2.63640018       0.29380226      -0.49128809       0.58495671
Si       5.40915144       8.03805280       8.29653063       0.77813908       0.45716327      -0.71961636
Si       6.83210178       1.28041366       1.30462775      -0.55558055       1.06797254       0.63657595
Si       6.82567461       1.39882759       6.81015739       0.21031148      -1.18618432      -0.21667707
Si       6.71410024       4.16283520       4.07916684       0.49305984      -0.05137450       0.68913543
Si       6.77981849       4.05238592       9.60662817      -0.43381017      -0.26430324      -1.01920075
Si       6.73433735       6.70666414       1.35505548      -0.98517371       0.49266936      -0.31890581
Si       6.79025863       6.69605921       6.82194460      -0.09646926       0.77343312       0.73455055
Si       6.82855413       9.48576764       4.18469160      -0.24580506       0.08059987      -1.42838650
Si       6.82610070       9.50216255       9.58675481       0.21023317      -1.03951027      -0.61482496
Si       8.14526337       0.01365298       2.68758236       0.03584665      -0.92214142       0.56900244
Si       8.15906113       0.00758904       8.21936326       0.31794367       0.25722756      -0.48054699
Si       8.17364303       2.70373517      -0.00214047       0.09660384       0.04592909       0.51289536
Si       8.10852677       2.73417546       5.46418375       0.83561863       0.75866379      -0.48134175
Si       8.08965044       5.47683437       2.68953767       0.56233371      -0.71714713       0.31389235
Si       8.13630016       5.31254273       8.13110496       0.69456010       0.21780617       0.12760368
Si       8.09932158       7.98839434       0.01610551       1.05503957       0.76566416      -0.21637556
Si       8.13266450       8.13914428       5.55078233      -0.43982409      -0.52138605      -0.40793569
Si       9.44872587       1.32753832       4.07783289       0.22788585       0.63399634      -0.05123576
Si       9.57961118       1.38173570       9.56966355       0.23787371      -0.46012538      -0.53825941
Si       9.51239457       4.11789631       1.33658529      -0.14814559      -0.19951767       0.22934316
Si       9.68123469       4.08789905       6.76825645      -1.34833659      -0.94222840       0.52047171
Si       9.39303865       6.85414630       4.07355369       0.70180300       0.08588107      -0.08755070
Si       9.56915771       6.83300604       9.34254699      -1.00479697      -0.32805749       0.52781103
Si       9.49784664       9.41594662       1.43808101      -0.25433344      -0.24618704      -0.56684848
Si       9.47261542       9.53025811       6.72556476       0.88572622       0.51554993       1.01663486
64
Lattice="10.862 0.0 0.0 0.0 10.862 0.0 0.0 0.0 10.862" Properties=species:S:1:pos:R:3:forces:R:3 pbc="T T T"
Si      -0.04754514      -0.03525564       0.02253628       0.37424100      -0.39457803       0.64610813
Si       0.06926808      -0.01452390       5.51352016      -0.66486772       0.32840826       0.29261597
Si       0.15423552       2.72163390       2.65316742      -1.55949867      -0.43905939       0.50584918
Si       0.04172139       2.75630221       8.23008830      -1.02117931      -1.54007496      -1.29479842
Si       0.10012192       5.36808512      -0.03968660      -0.54558254      -0.15296462       0.09131100
Si      -0.02548126       5.37206897       5.37179624      -0.30441354       0.13844611       1.37707670
Si      -0.11660684       8.23986538       2.67019047       1.10599656      -1.24556112       0.65813208
Si       0.05067819       8.11369927       8.16656624      -0.21425075      -0.05788612      -0.58427844
Si       1.36697414       1.25230594       1.39087702       0.34688349       0.32916670      -0.64626548
Si       1.47700553       1.44636840       6.87050349      -1.67608558       0.05720227      -0.93273649
Si       1.33197568       4.11896197       4.06146443       0.49717564      -0.03749404      -0.45355917
Si       1.40179130       3.98679271       9.38901589       0.68951680       1.35823022       1.77830422
Si       1.37034082       6.83074704       1.28926367      -0.14257999       0.82590219      -0.12511928
Si       1.31445452       6.71500355       6.79302094       0.80385499      -0.24915986      -0.02654520
Si       1.29265612       9.48195402       4.09804423       0.77721517      -0.11757581      -0.18292433
Si       1.28572300       9.57177635       9.42852643       0.26698903       0.90834038      -0.73712608
Si       2.73311694       0.05050817       2.81517809       0.29801050      -0.69769153      -0.05540441
Si       2.75975906       0.06636290       8.05024780       0.46980779      -1.90219849       0.43609782
Si       2.65647796       2.64689884      -0.05330450       0.57496391      -0.24243605       0.57401286
Si       2.65382990       2.77951213       5.42058897       0.11482357       0.59841521       0.68713362
Si       2.67345211       5.51783343       2.75224215      -0.25745481      -0.04214214      -0.45931824
Si       2.76543639       5.43270014       8.23650818       0.20246565       0.65719015      -0.24167024
Si       2.69761593       8.23769094      -0.30891614       0.45998638      -0.68900248       2.45545514
Si       2.71611803       7.98932924       5.35758190      -0.32193012       0.73980437       0.11646136
Si       4.04378293       1.45383350       4.23599438       0.66069094      -0.69190906      -1.23214416
Si       4.07513631       1.22323760       9.52529829       0.06136660       1.61335397      -0.36473255
Si       3.93700359       4.08930677       1.43984750      -0.07460727      -0.42835618      -0.57720507
Si       4.02120166       4.03669687       6.88582565       0.06554573       0.29822938      -0.76232746
Si       4.14369269       6.79670459       3.95150728       0.39946925      -0.47475593       1.13025939
Si       4.23807431       6.73231833       9.69277176      -1.09463387      -0.14337114      -1.00013398
Si       4.02927442       9.55655398       1.26359027      -0.29466082      -0.38309854       0.42379851
Si       4.11388060       9.34321825       6.72880825      -0.86521359       0.36654410       0.42012727
Si       5.44917311       0.03369599       0.00195007      -0.20061460      -0.55899518       0.35804028
Si       5.39859964      -0.06593485       5.42682680      -0.03596617       0.06538520       0.12665278
Si       5.37279056       2.84740044       2.78356510      -0.01513677      -0.75971076      -0.17494660
Si       5.42225709       2.74330996       8.17276312      -0.06324109      -0.84999551       0.31770357
Si       5.46760896       5.40639998       0.24695732       0.17890252      -0.90519702      -0.93465418
Si       5.42211686       5.36830065       5.51836351      -0.08976986       0.54272111      -0.77868356
Si       5.46376575       8.12149706       2.56953414      -0.66948883       1.21966497       0.69124180
Si       5.41783492       8.04674179       8.21060696       0.45170153       0.56223407      -0.28073347
Si       6.66824968       1.51198431       1.24410448       0.09621039       0.41493307       0.76709059
Si       6.71464445       1.31760709       6.78013383       0.46078080       0.13392822       0.40089681
Si       6.83477857       4.16046221       4.03300533       0.12015038      -0.39409814       0.78365127
Si       6.82181140       4.13272618       9.46325999      -0.69813592       0.43645147       0.28314475
Si       6.84025381       6.80795987       1.39140133       1.50293950      -0.78702833       0.11117036
Si       6.80289559       6.77968054       6.80795273      -0.10406956       0.17467203      -0.32546839
Si       6.76287435       9.54389813       3.99520261      -0.27417265      -0.05271130      -0.17528810
Si       6.72984448       9.55746459       9.50021942       0.11069087      -0.91477855       0.19584291
Si       7.95301149       0.22988882       2.70951591       1.36427148      -0.87236782      -0.27053957
Si       8.09924141       0.01840621       8.24604808       0.68157279      -0.21493166      -1.40243418
Si       8.12055222       2.71074180      -0.14897810       0.41323436      -0.13379268       0.68032394
Si       8.11148667       2.67631718       5.45353866      -0.03269463       0.26325992      -0.22959272
Si       8.34074143       5.36904478       2.72188860      -0.72983192       0.84561770      -0.17981742
Si       8.20149538       5.44310593       8.09855146       0.20711800       0.11060869       0.19441927
Si       8.10937891       8.14257827      -0.05070565       0.60842397       0.13077669      -0.04544426
Si       8.08954931       8.21167992       5.41698453      -0.01403327      -0.28309769       0.19045035
Si       9.51737947       1.37704719       4.10451538       0.51163675       0.04525365      -0.23310864
Si       9.57045271       1.29725832       9.52579392      -0.51023738       0.65984515      -0.34795642
Si       9.52798556       3.94358153       1.28524203       0.50595439       0.54464508      -0.12425598
Si       9.52028439       3.98954941       6.82340566      -0.23136647       0.28471481      -0.54297724
Si       9.51643997       6.82800373       4.18589743      -0.12480895       0.16692424      -1.13470587
Si       9.59775561       6.76608222       9.46164425      -0.65253979      -0.21711728       0.82936114
Si       9.42803568       9.54246686       1.40926498      -1.49354127       0.77980888      -0.60569966
Si       9.51754431       9.39856283       6.84488210      -0.40598303       1.27245913      -0.06013785
